,#,Account,OpenSea / ENS,Number Owned,last Active
0,1,0xc352b534e8b98,,429,12 days ago
1,2,0xb7f7f6c52f2e2,WrappedCryptoPu,310,17 hours ago
2,3,0xa25803ab86a32,wilcox.eth,254,1 month ago
3,4,0xb88f61e6fbda8,,215,4 months ago
4,5,0x577ebc5de943e,,173,26 days ago
5,6,0x69021ae876958,sov.eth,147,
6,7,0x26f744711ee9e,,141,4 years ago
7,8,0xcc7c335f3365a,,126,3 days ago
8,9,0xcffc336e6d019,,125,1 month ago
9,10,0x6f4a2d3a4f47f,,103,1 day ago
10,11,0xd79b937791724,,102,1 month ago
11,12,0x51688cd36c188,,100,
12,13,0x6611fe71c233e,,99,5 days ago
13,14,0x31a5ff62a1b2c,,98,
14,15,0x4084df8bf74ba,,98,
15,16,0x062c5432107e3,,93,1 month ago
16,17,0x7174039818a41,,89,3 years ago
17,18,0xdde8df9a7dc9f,Kenney,82,2 months ago
18,19,0x3be89b64e1437,,78,4 days ago
19,20,0x6301add4fb128,ddaavvee,75,25 days ago
20,21,0x7760e0243ca9b,,66,3 years ago
21,22,0x00b278dd68f9d,,63,20 days ago
22,23,0xd6a984153acb6,gary.veefriends,59,1 month ago
23,24,0xff36ff458b51d,hodlponkz.eth,54,
24,25,0x4d8e16a70f384,,52,
25,26,0x269616d549d7e,,51,3 days ago
26,27,0x4bbb41f61fffc,,50,7 months ago
27,28,0xb47a70df538b9,niftynaut.eth,49,21 days ago
28,29,0x005734d7d408b,,46,4 years ago
29,30,0x2cc12318de28e,,44,
30,31,0xc480fb0ebea25,,38,22 days ago
31,32,0x8f6b1e467fbe7,,38,12 days ago
32,33,0x03205743e7fc5,,38,1 month ago
33,34,0x030defb961d3f,,37,16 days ago
34,35,0x2f2f237d2e655,thebeautyandthe,37,1 month ago
35,36,0x97ad156c48078,,35,
36,37,0xc24f574d6853f,shilpixels.eth,34,26 days ago
37,38,0x0e9aed5c7721c,,31,11 days ago
38,39,0x8fa20dcc712bd,,30,
39,40,0x78f0269f5b1ca,TokenAngels,30,2 days ago
40,41,0xc6a8206756fbc,punks.pixls.eth,30,7 months ago
41,42,0x052564eb0fd8b,pablopunkasso.e,29,1 day ago
42,43,0xf605c6c3caa16,,29,10 days ago
43,44,0x7583534d2f2c3,,29,1 month ago
44,45,0x66c7a7348250f,cx000.eth,28,2 years ago
45,46,0xbb67d2ab6251a,,26,
46,47,0x56178626332fc,,25,1 month ago
47,48,0xc52650d88793c,kcmo.eth,25,1 month ago
48,49,0x94de7e2c73529,tonyherrera,25,6 days ago
49,50,0x231d688aa706d,,24,1 month ago
50,51,0x9df947cd8a981,,23,
51,52,0x3295df41a2f28,Cyrus,23,2 years ago
52,53,0x68a7ac13477aa,,22,6 months ago
53,54,0x9ae8912ea6562,snax,22,1 month ago
54,55,0xbb1ec73938b9d,,22,1 month ago
55,56,0xd5b171571df3b,,21,1 day ago
56,57,0x530afa101bed3,PB,21,5 months ago
57,58,0x1da5331994e78,,21,1 month ago
58,59,0xb89c2f6bb674b,Tschuuuly,19,1 month ago
59,60,0xc2f87f88df0f2,curating_bits,19,5 months ago
60,61,0x44fab57dba0e6,,19,4 years ago
61,62,0x940fec5c4f11f,,18,1 month ago
62,63,0x024bcbcaad82e,,18,3 days ago
63,64,0xb4bb4156e5e6c,,18,6 days ago
64,65,0x896848ad1a209,,18,1 month ago
65,66,0x584cdfdeed396,,18,2 months ago
66,67,0x702a39a9d7d84,,18,1 month ago
67,68,0xef768ef781637,,18,1 day ago
68,69,0xae33cc279f43f,,18,
69,70,0x2a538000a53f3,0x_NFT,17,7 months ago
70,71,0xdd9d84399a8e8,,17,4 years ago
71,72,0xb0dafc466871c,thecitadel.eth,17,1 day ago
72,73,0xe83c750b27083,Snowfro,16,1 month ago
73,74,0x8be6ad79f67d1,,16,27 days ago
74,75,0x175b49d39c059,realbuddha.eth,16,
75,76,0xcf8401fabc115,,16,28 days ago
76,77,0x0258558bf2a4f,,15,11 days ago
77,78,0x32dd0756316b3,,15,1 month ago
78,79,0xe5c4c41194901,Katasterfoes,15,1 month ago
79,80,0x82b1f29c56082,ross_VRON,15,1 month ago
80,81,0x1e36a5979c613,7478,14,1 month ago
81,82,0x8e7644918b3e2,zoink.eth,14,2 months ago
82,83,0x2754637ab168f,,14,
83,84,0x8ca89c56aefd3,,14,3 years ago
84,85,0x50dd57f50a17d,,14,27 days ago
85,86,0xb70c1a3242e36,,14,4 days ago
86,87,0xa8f8f58212302,,14,5 days ago
87,88,0x9d3f4eeb533b8,district13.eth,14,7 months ago
88,89,0xe301612b0751f,,13,1 month ago
89,90,0x7447397496b36,,13,4 years ago
90,91,0x4c1147725bac8,,13,4 years ago
91,92,0x47d4f20ae83bc,doh.eth,13,2 months ago
92,93,0x762ec7ca4658e,,13,
93,94,0xfe0d9af0225f0,,13,
94,95,0xbd33b53b6394d,fez.eth,12,10 days ago
95,96,0x7a39608107dc0,,11,13 days ago
96,97,0xfe2f279d3679b,subbo.eth,11,3 days ago
97,98,0x2e675eeae4747,,11,
98,99,0x51ec89f1fcfed,,11,2 months ago
99,100,0xd24ff5e32de12,,11,
100,101,0x98cfea4a7632e,,11,8 months ago
101,102,0xdc9e112ab6859,,11,
102,103,0xed47015bb8080,,11,2 months ago
103,104,0x84d34f4f83a87,,11,1 month ago
104,105,0x9145f156ea5e0,,11,
105,106,0x79bb5016e87ec,,10,
106,107,0x80845058350b8,,10,10 days ago
107,108,0x303052148a78a,Pixls,10,3 months ago
108,109,0x50664ede715e1,yfimaxi.eth,10,29 days ago
109,110,0x422fac9209d91,,10,11 days ago
110,111,0x0da0df4be4671,metakid,10,1 month ago
111,112,0xa64bdddd3c2c3,,10,3 years ago
112,113,0x9e1e409f901a7,,10,1 month ago
113,114,0x8adbff0b3a450,,10,1 month ago
114,115,0x27c79a0187896,,10,1 month ago
115,116,0xcbefa0a38a915,,10,1 month ago
116,117,0xf36972bbff0bb,disco.eth,10,29 days ago
117,118,0xcd2c66fe27f8c,,10,1 month ago
118,119,0x9674ede5eb609,omz.eth,10,27 days ago
119,120,0xe203882039bf2,,9,2 days ago
120,121,0x5163588239afc,,9,1 month ago
121,122,0xdb25e38a12d03,NFTinTin,9,1 day ago
122,123,0x2e0c34490a9ee,,9,
123,124,0x279679e6b44ec,,9,1 month ago
124,125,0x5d89cc281c3f4,,9,
125,126,0x897aea3d51dcb,alien635.eth,9,
126,127,0xf2ef5636b38ec,marspunks.eth,9,23 hours ago
127,128,0xe8723d26ad5f7,jmg,9,6 days ago
128,129,0xe5545c0e1b2dc,,9,1 month ago
129,130,0xe75021660e00a,,9,3 days ago
130,131,0x6ec30fd91a504,daddykalish.eth,9,2 days ago
131,132,0x51636d9efbfb7,,9,27 days ago
132,133,0x28784d9a5052b,,9,7 months ago
133,134,0xd4fa6e82c7771,,9,1 month ago
134,135,0x51853e1b61f89,Catdog,9,1 year ago
135,136,0x01ec738293d4f,✨🚀🌙.eth,9,6 months ago
136,137,0xfeeb2d7f276b3,,9,6 days ago
137,138,0x800b4dbcef65c,,9,4 years ago
138,139,0x374bd185ee19f,,9,7 months ago
139,140,0x8dbbca57ea562,VonMises,9,29 days ago
140,141,0xdfc05563f9477,,9,4 months ago
141,142,0x7d4823262bd2c,fazebanks.eth,9,29 days ago
142,143,0xce90a7949bb78,,9,17 days ago
143,144,0xc5faf10fe8446,,9,26 days ago
144,145,0x83506d12aca4c,pelvis.eth,9,1 month ago
145,146,0x6639c089adfba,,9,2 days ago
146,147,0x9e427ebcca41c,,8,4 days ago
147,148,0x4322aa46ffed6,,8,1 month ago
148,149,0x65b1b96bd0192,,8,22 hours ago
149,150,0x18e804e61c44f,,8,1 month ago
150,151,0x645eb399f09a3,,8,1 month ago
151,152,0x8e662143178bb,Dude_Nakamoto,8,1 month ago
152,153,0xc46db2d89327d,Deeze,8,2 days ago
153,154,0x06bf2b4da028b,,8,25 days ago
154,155,0xfe83a0a06d830,,8,
155,156,0xdb91873ea5211,,8,
156,157,0x3689df917b622,,8,25 days ago
157,158,0x88c50035b55cb,,8,1 month ago
158,159,0x5f18f90824768,,8,5 months ago
159,160,0x67c4438c86c00,,8,7 months ago
160,161,0xae7721babd433,,7,7 days ago
161,162,0x4db1dd33159f5,,7,5 months ago
162,163,0x0a8f4037729ac,,7,
163,164,0x2503e93fbb53f,spykid.eth,7,1 month ago
164,165,0xb79cd7662a50e,deafbeefvault.e,7,1 month ago
165,166,0x968b61557a99b,artofrjm,7,1 year ago
166,167,0xc72f3a0fedd9d,,7,2 years ago
167,168,0xb38071b23f0fa,,7,1 month ago
168,169,0x71710e1a6b5e5,,7,4 months ago
169,170,0x470e9bd486ebf,,7,3 years ago
170,171,0x729fcb34c7c84,,7,4 years ago
171,172,0x1c38e6b7a886a,,7,15 days ago
172,173,0x4154245739a63,thebinocollecti,7,12 days ago
173,174,0xb3e08599ac576,oniichan.eth,7,
174,175,0xce7a9f981a2a7,,7,1 month ago
175,176,0x449c69df8487c,,7,1 month ago
176,177,0xa351a4fffceed,,7,6 days ago
177,178,0x3ee505ba31687,,7,4 months ago
178,179,0x7c00c9f0e7aed,0x7c00c9f0e7aed,7,14 days ago
179,180,0x5b53cbf3a7ae6,storage.dcl.eth,7,18 days ago
180,181,0x8ad272ac86c6c,j1mmy_vault,6,1 month ago
181,182,0x7d4d1f45a9fec,mshadows.eth,6,1 month ago
182,183,0x75cfed3969e79,,6,10 days ago
183,184,0x944d3225a9118,,6,7 hours ago
184,185,0xf4b4a58974524,,6,26 days ago
185,186,0x268169a19bca3,,6,2 months ago
186,187,0xd387a6e4e84a6,Pranksy,6,4 days ago
187,188,0x2999377cd7a7b,josie,6,1 year ago
188,189,0x7f3560773c01c,,6,15 days ago
189,190,0xcd1ab231cf7f0,,6,
190,191,0xd16d910d50f7d,RationalStickyA,6,
191,192,0x93730ce5ac9de,,6,
192,193,0xe03559ea7be32,,6,29 days ago
193,194,0x8b7a5b2217561,zaphod,6,1 month ago
194,195,0xc182d81b3c3bb,,6,4 years ago
195,196,0x8c6d56e641164,,6,4 years ago
196,197,0x1c41d8667e815,,6,
197,198,0xcffc60228e1a8,jesterboxboy.et,6,29 days ago
198,199,0xf1e1c701b49b1,,6,1 month ago
199,200,0x0d93bc9654df5,yeastydough.eth,6,17 hours ago
200,201,0x53311150764f7,ohana.eth,6,12 days ago
201,202,0x362b638b43f76,mzm.eth,6,11 days ago
202,203,0x008c84421da55,notmycircus.eth,6,1 month ago
203,204,0x96a6913b41b99,darylm.eth,6,1 month ago
204,205,0xf3016b7608acf,,6,11 days ago
205,206,0xba19ba5233b49,,6,4 months ago
206,207,0x3fa5b646b1927,synyster.eth,6,1 month ago
207,208,0xa486c75c52206,,6,2 months ago
208,209,0x0ed1e02164a2a,,6,29 days ago
209,210,0x850cae094ce34,laggy.eth,6,7 days ago
210,211,0xd6ef9b4164c1c,,6,1 month ago
211,212,0x3624df662d0f7,,6,6 months ago
212,213,0x59a5493513ba2,,6,7 months ago
213,214,0x7dfb9a0e7614b,,6,
214,215,0xff0bd4aa34967,,6,1 month ago
215,216,0x1857034ef7c02,,6,1 year ago
216,217,0xc40df87e16339,tappy.eth,5,1 month ago
217,218,0xcaf6fd54fb74c,capital_izm,5,4 months ago
218,219,0x3042887f97821,,5,1 month ago
219,220,0x6fb3ae4ecf5a4,,5,1 month ago
220,221,0x536c73c5b43f8,,5,
221,222,0x8ed4d3c67ee1a,BlackKettle,5,8 days ago
222,223,0xa06ad2e033937,,5,1 month ago
223,224,0xc2e32bf7b4f3b,,5,1 month ago
224,225,0xca5e7f4cfef82,,5,
225,226,0x9e67d018488ad,WuTangClan,5,4 days ago
226,227,0x8a3d2efdb70c3,,5,1 month ago
227,228,0x5d43e8ac2d585,,5,1 month ago
228,229,0xa99a76dddbb96,,5,12 days ago
229,230,0xd72bb0961368f,pleurer.eth,5,12 days ago
230,231,0xee45124d3c2a3,hammerline.eth,5,1 month ago
231,232,0xd9fab8f254c26,,5,
232,233,0x3285ba409c0bd,,5,
233,234,0x20a6f27e11edc,punkz.eth,5,1 month ago
234,235,0x0a4eafeb533d4,0x0a4eafeb533d4,5,5 months ago
235,236,0x2e5e227280b1d,,5,17 days ago
236,237,0x6abc0b05b5542,,5,1 month ago
237,238,0x7f3aff2681ae4,,5,11 days ago
238,239,0xebf1db23ec6b9,,5,1 month ago
239,240,0x076d14b6d6174,,5,6 months ago
240,241,0xbcb8c532636f9,,5,1 month ago
241,242,0x4f3a120e72c76,,5,29 days ago
242,243,0x3f17244f636f1,kikuchiyo.eth,5,1 month ago
243,244,0x81b9a5f21efdb,valko.eth,5,1 month ago
244,245,0xcd8eddd0a2704,gr8wxl,5,5 months ago
245,246,0xa9bfa94ab1497,,5,4 years ago
246,247,0x560b9244a2fdc,,5,4 years ago
247,248,0xc8c115dcb2910,,5,4 years ago
248,249,0xddfdcb21c935e,,5,11 days ago
249,250,0xa6e2e910515e6,,5,4 months ago
250,251,0x1d28a703ab06b,runhot999-vault,5,4 days ago
251,252,0xaec98826319ef,,5,7 months ago
252,253,0xc46f437244770,,5,4 years ago
253,254,0xfaf9f63baf57b,,5,1 month ago
254,255,0xbbaf6df069adf,,5,13 days ago
255,256,0xbcda185bbb2ff,,5,
256,257,0x51306877c61df,,5,4 years ago
257,258,0x00000217d2795,,5,4 years ago
258,259,0x7797cf5b68bb6,,5,4 years ago
259,260,0x000001f568875,bokkypoobah.eth,5,4 years ago
260,261,0x6f35b0cfc58eb,Cry,5,2 months ago
261,262,0xe2cea50ba5a30,,5,2 months ago
262,263,0xede69f8f3cb62,,5,4 months ago
263,264,0x485248150969e,🌹🕊🌹.eth,5,
264,265,0x7224a1a8750d7,,5,1 month ago
265,266,0xec7641e298af0,sillytuna.eth,5,2 months ago
266,267,0x0521a00d551ea,,5,1 month ago
267,268,0x7c0830c2fc55e,,5,4 days ago
268,269,0x8deeb3ac25fd5,,5,1 month ago
269,270,0xebf02c6e12c3e,Zonked,5,1 month ago
270,271,0xfd22004806a68,6529.eth,5,2 months ago
271,272,0x38b80aa63aca0,,5,1 month ago
272,273,0xf0d6999725115,gmoney,5,27 days ago
273,274,0x52ad8f3c506aa,Novo311,5,4 days ago
274,275,0x1919db36ca2fa,,5,18 hours ago
275,276,0x800366f5cb719,,5,
276,277,0xdf612c887e88f,,5,5 days ago
277,278,0x696ed7b26f4b0,beautifulpunks.,5,10 hours ago
278,279,0xdf4c62f992ab2,,5,6 days ago
279,280,0x87b1702a5a31f,,5,22 days ago
280,281,0x43fb99c5bc88c,,5,6 days ago
281,282,0xbac42c9b32e57,krustypunk.eth,5,1 month ago
282,283,0xea2606df39ba3,,5,1 day ago
283,284,0x5382859146010,,5,10 days ago
284,285,0x83e551e481581,,5,23 days ago
285,286,0x79bc173933cd8,,5,
286,287,0xae7bca301c0c0,kenl.eth,5,2 days ago
287,288,0xe9562d66f405b,,5,27 days ago
288,289,0x8225acd14d2bd,,5,1 month ago
289,290,0xb0906862b2197,,5,1 month ago
290,291,0xb4d8b83b41dd6,,5,
291,292,0x5320f1fbf3a6a,,5,1 month ago
292,293,0xb5b84e29b7191,,5,27 days ago
293,294,0x00668bd79ede0,zonted,4,29 days ago
294,295,0x70098a8b86d32,,4,6 days ago
295,296,0x5b713f9e1e51d,,4,1 month ago
296,297,0xa34d2deb99da3,,4,1 month ago
297,298,0xf5993d2217ab9,apemodevault.et,4,10 days ago
298,299,0xeefec5734f649,perceptive.eth,4,5 months ago
299,300,0x4d26d18d169d9,,4,6 days ago
300,301,0xd3e2e76e4ab03,,4,15 days ago
301,302,0x97558105afd85,,4,3 months ago
302,303,0xcec3dc9edb111,,4,1 day ago
303,304,0xdda77c99d0873,cgpunks.eth,4,3 days ago
304,305,0xfab9b89d9a031,,4,1 month ago
305,306,0x2079c29be9c80,luggis.eth,4,1 month ago
306,307,0xcfd6960d32f46,,4,
307,308,0x6456f20453a38,studio137.eth,4,29 days ago
308,309,0x4680cb6356347,,4,21 days ago
309,310,0x18ee9cebca35d,,4,21 days ago
310,311,0x05c6df5d4cc11,,4,1 day ago
311,312,0xd7e077576f13e,ernestomorales.,4,5 months ago
312,313,0xc22e7d56806ab,bkbollinger.eth,4,1 month ago
313,314,0xc842ce7214a14,,4,1 month ago
314,315,0xf1ad946ae30a2,,4,1 month ago
315,316,0x9a70d89db9a7a,,4,
316,317,0x9d9de0f6410a8,,4,28 days ago
317,318,0x97e9a4f24a962,,4,
318,319,0x8fb3a8bd22bde,,4,
319,320,0xc06dbddf5b059,,4,7 months ago
320,321,0x023ef73d4c6de,,4,2 days ago
321,322,0x384bfb892fee0,,4,25 days ago
322,323,0x8659044ea27ad,,4,1 month ago
323,324,0x61fef96e49f35,,4,10 days ago
324,325,0x09bdf0efdffdb,warrbos.eth,4,3 years ago
325,326,0x0a28cb91b619f,,4,
326,327,0xa0bc78c67d082,,4,
327,328,0x592a51330f1e8,,4,10 days ago
328,329,0x9293c35d6e152,analemmaforever,4,18 days ago
329,330,0xe34bded2b2564,,4,1 month ago
330,331,0xdd3a68eb8324c,,4,1 month ago
331,332,0x007508a6c38bc,,4,1 month ago
332,333,0x606e83ad850a2,,4,4 years ago
333,334,0x3fba2d2da359a,,4,4 years ago
334,335,0xb716b043e76d2,,4,4 years ago
335,336,0xa8aaa1f0abdf8,,4,4 years ago
336,337,0x6c22fa46cb7fa,,4,4 years ago
337,338,0x88810436096cb,,4,4 years ago
338,339,0xb5e6acc6cbb5d,,4,12 days ago
339,340,0xee269a7968a99,,4,
340,341,0x4da94e682326b,dealwithzhukov,4,5 months ago
341,342,0xc404dd1cd172a,,4,1 month ago
342,343,0x3d4dfeb35981b,,4,23 days ago
343,344,0x9ef55a3cb657f,,4,29 days ago
344,345,0xd12e276f76a55,nft618.eth,4,2 days ago
345,346,0x9ad613e2f47d9,,4,1 month ago
346,347,0x6aeda057364cc,,4,29 days ago
347,348,0xbf23b32f95694,,4,1 month ago
348,349,0xb9fddbd225b6c,,4,5 months ago
349,350,0x068315ebcbc30,,4,6 months ago
350,351,0xef6d69922bc2d,,4,3 months ago
351,352,0x97db27c92bc77,,4,4 days ago
352,353,0x02c52eaedfdf3,,4,6 days ago
353,354,0x4c3f9010c431d,teejayortj.eth,4,1 month ago
354,355,0x51cd54fb353cb,metapurse.eth,4,1 year ago
355,356,0xc79b1cb9e38af,,4,1 month ago
356,357,0x0481ac68cc3cb,CryptoEarth,4,1 year ago
357,358,0xb813c62ad216a,,4,29 days ago
358,359,0x2b941072f0cc2,jzchew.eth,4,12 days ago
359,360,0xdc25e802e9fcd,,4,10 days ago
360,361,0x930af7923b8b5,,4,1 month ago
361,362,0xdf67544b82971,,4,
362,363,0x4074bc05a89f1,cashtronaut.eth,4,1 month ago
363,364,0x830cc132dd66f,,4,21 days ago
364,365,0x61f52f4aa2645,,4,28 days ago
365,366,0x25f9e2399a962,,4,11 days ago
366,367,0x2f7f6f678f18d,,4,2 days ago
367,368,0x2536c09e5f569,xaix.eth,4,5 months ago
368,369,0xcfc50541c3dea,,4,29 days ago
369,370,0xeb1c22baacafa,richerd.eth,4,4 months ago
370,371,0x2f44fb58135ae,,4,9 days ago
371,372,0xf6bc89cc57e33,taneleertivan.e,4,29 days ago
372,373,0x2e2e26ba38ed2,,4,12 days ago
373,374,0x271b97fcbd218,,3,
374,375,0x56e6be28a28db,,3,
375,376,0x9cc5f02499328,,3,1 month ago
376,377,0xf9ff236d8311c,,3,1 day ago
377,378,0x999e77c988c4c,,3,1 month ago
378,379,0x6578671927f52,,3,
379,380,0x2ba7f9d560bfb,,3,7 months ago
380,381,0x92ed9731d907b,,3,4 months ago
381,382,0x30fe9e1972a79,,3,
382,383,0x440631dbdc075,,3,29 days ago
383,384,0x1b50383312c24,,3,7 months ago
384,385,0xd9a657acb3960,wolverine.eth,3,1 month ago
385,386,0x78edda5728849,,3,1 month ago
386,387,0x303662b02e1a0,,3,1 month ago
387,388,0x64756a0976182,,3,1 month ago
388,389,0x4dfac347cc148,,3,1 month ago
389,390,0x0eb9a7ff5cbf7,CPyrc,3,5 days ago
390,391,0x91338ccfb8c0a,,3,2 hours ago
391,392,0x54ac13dbf807a,,3,
392,393,0x5924495f7118e,,3,12 days ago
393,394,0x13623e2d23824,,3,5 hours ago
394,395,0x3be1340886287,,3,
395,396,0xed98464bda3ce,sartoshi.eth,3,1 day ago
396,397,0x35126e6e02e4d,,3,3 months ago
397,398,0x1a1f337faa595,b1ake.eth,3,3 days ago
398,399,0xc70a09dd6944c,daLenz_vault,3,4 months ago
399,400,0x0ec348908ee90,barcella.eth,3,1 month ago
400,401,0x9cbd7d0a64c87,,3,
401,402,0xd6597398fb49a,,3,7 months ago
402,403,0x51d858ee7a2e2,,3,1 month ago
403,404,0xaf5bdcfedad85,,3,1 year ago
404,405,0x113d754ff2e6c,🤹🏻‍♂.eth,3,2 days ago
405,406,0x55afb7fee3406,,3,17 days ago
406,407,0x1e32a859d69dd,straybits.eth,3,28 days ago
407,408,0x9b5aaa36aa323,,3,3 days ago
408,409,0xa80be8cac8333,0xa80be8CAC8333,3,1 month ago
409,410,0x018edc98b3190,Kittypad,3,7 days ago
410,411,0xd0c877b474cd5,Coldie,3,4 months ago
411,412,0x5b1c25d61edce,,3,6 days ago
412,413,0x1d337f7e29742,,3,1 month ago
413,414,0xee8eeec3e7a5a,renaissanceman,3,3 days ago
414,415,0x3185fad637cf5,,3,1 month ago
415,416,0x3ff68ef5a7325,,3,7 months ago
416,417,0x0a690b298f84d,redlioneye,3,11 days ago
417,418,0x38a161d47f01b,somewhere0x.eth,3,1 month ago
418,419,0x215fedd5780c3,,3,10 months ago
419,420,0x90b6539874e8e,,3,9 hours ago
420,421,0x94c1d7488476e,,3,1 month ago
421,422,0x9ca9b5e9f5917,,3,3 years ago
422,423,0x278dcbe75441a,na,3,7 months ago
423,424,0xe703f231ab056,colborn.eth,3,2 days ago
424,425,0x3ab536bdc51f5,,3,2 years ago
425,426,0xeb5889fbe37e2,,3,3 years ago
426,427,0x81facc69908d9,Ajiyl,3,2 days ago
427,428,0x8885224cf8ee2,,3,4 years ago
428,429,0x8b6fb9fd6a299,,3,
429,430,0xc830eb280887e,,3,2 hours ago
430,431,0x73e4a2b60cf48,cyberpnk.eth,3,1 month ago
431,432,0x6e5b3f763b2dd,,3,4 years ago
432,433,0x1e5fe56aa8f66,,3,11 days ago
433,434,0x54863db19c3f0,,3,23 days ago
434,435,0x8449593b8e9d4,,3,2 years ago
435,436,0x6e289e9b0cb88,,3,
436,437,0x747be18e99a6c,,3,4 years ago
437,438,0x7512c6a03b4c2,,3,8 hours ago
438,439,0x9345d6de501e3,,3,4 years ago
439,440,0x4239974d0b49c,,3,4 years ago
440,441,0x042ebbd517908,,3,4 years ago
441,442,0xbf9888cb20fcf,,3,4 years ago
442,443,0x05083ffbadead,,3,6 months ago
443,444,0xd7047cde339f2,,3,14 days ago
444,445,0x9f586e4dfe9f4,,3,12 days ago
445,446,0x54be3a794282c,dingaling.eth,3,1 month ago
446,447,0xde62377a6ccbc,,3,21 days ago
447,448,0x78e96be52e38b,,3,1 month ago
448,449,0x87f8069503ceb,,3,28 days ago
449,450,0xfe0f3380bd288,tentoedtom.eth,3,4 months ago
450,451,0x4b4c13434aac5,,3,1 month ago
451,452,0x045f165732d0f,,3,1 month ago
452,453,0x5655c45c97de7,,3,
453,454,0x961d63a5c37af,,3,1 month ago
454,455,0xb42bfb72c6b6a,,3,
455,456,0x904e43d32b864,,3,1 day ago
456,457,0x13f6f1134d1e6,alexx.eth,3,12 days ago
457,458,0x72bf7f68edebd,,3,
458,459,0xb5696e4057b9b,,3,19 hours ago
459,460,0x3432b45b9ee95,,3,1 month ago
460,461,0x5a85bc3b4b509,,3,11 days ago
461,462,0x0dfe9c8263ad3,,3,1 month ago
462,463,0x7786089b52320,,3,1 month ago
463,464,0x20eadfcaf91bd,,3,7 months ago
464,465,0xeec5cbfa5e2d2,,3,1 month ago
465,466,0xc330219f80328,,3,
466,467,0xa5d0d51671645,,3,6 months ago
467,468,0x04c36d1373b69,,3,23 days ago
468,469,0x64d1cb399ac89,,3,
469,470,0xa420d99a9859c,,3,29 days ago
470,471,0x9b45755f1f2f8,,3,1 month ago
471,472,0xc15753ae3b609,mbeck.eth,3,3 days ago
472,473,0x8e3934250212b,,3,1 month ago
473,474,0xa397d02928aca,,3,29 days ago
474,475,0xe9d1ee843e363,,3,
475,476,0x9dfc5a0cb5c30,,3,25 days ago
476,477,0x2ac38fd88c120,,3,11 days ago
477,478,0x5399a09fc5d00,scalynelson.eth,3,3 months ago
478,479,0xc50bc863f6579,,3,25 days ago
479,480,0xf5c1d55e94726,,3,1 month ago
480,481,0x32cc2ec897f21,notsofastgaller,3,1 month ago
481,482,0x044155f2a0986,,3,1 month ago
482,483,0xffa914c83d851,,3,24 days ago
483,484,0x541d7bbcfb54c,,3,
484,485,0x0cacc6104d8cd,,3,9 days ago
485,486,0x36ed2d75a82e1,cryptokemon_par,3,1 day ago
486,487,0x40d775827365a,,3,1 month ago
487,488,0xfaa55064941a5,,3,1 month ago
488,489,0x6491bce963fca,,3,1 month ago
489,490,0x05e06f2ec24c0,,3,7 months ago
490,491,0x15741cffe2d0a,,3,
491,492,0xbe310614d5350,,3,
492,493,0x4907911cf8911,,3,
493,494,0x8b007e2d34faa,,3,2 months ago
494,495,0x50ec3708531ac,,3,25 days ago
495,496,0x6277a1073dfbe,point-grab-capi,3,21 days ago
496,497,0x065b7276f3a69,,3,12 days ago
497,498,0xb53349160e387,punkopoly.eth,3,1 month ago
498,499,0xbd4aae63bd1bc,familyportrait.,3,1 month ago
499,500,0xe7449d1590d8f,,3,1 month ago
500,501,0xd038d146dfab6,,3,
501,502,0xf40b3d16ae262,,3,1 month ago
502,503,0x064cfc529ed6d,,3,7 months ago
503,504,0x7c453212b2522,,3,
504,505,0xf3b0f4411c77c,,3,19 hours ago
505,506,0x0a846cce31246,,3,1 day ago
506,507,0xc72aed1438615,,3,18 days ago
507,508,0x944f9f9b31f4d,,3,2 days ago
508,509,0x70dd0782cb313,rleshner.argent,3,1 month ago
509,510,0xc77fa6c05b4e4,,3,12 hours ago
510,511,0x61d9d9cc8c320,,3,24 days ago
511,512,0x7efe3ac6ec0ff,🎰🎰🎰.eth,3,2 months ago
512,513,0x2e5ccffbae934,laz.eth,3,6 days ago
513,514,0x9b4da8243fced,,3,1 month ago
514,515,0xfe1eceed98035,,3,
515,516,0xe5200a0066e98,,3,1 month ago
516,517,0x91c782e0653e2,,2,16 days ago
517,518,0xff0cb0351a356,,2,1 month ago
518,519,0x0dc1c0cf5bc07,,2,23 hours ago
519,520,0xf897c8038522f,cosmickramer.et,2,1 month ago
520,521,0x123432244443b,mian.eth,2,24 days ago
521,522,0x1b90d15146956,,2,4 months ago
522,523,0xd76aa530b8c1f,,2,28 days ago
523,524,0x2649c4628da55,,2,2 months ago
524,525,0x9dd156ed71a84,,2,
525,526,0x7811c6a535ddf,,2,5 days ago
526,527,0xee3e5579813c7,,2,
527,528,0x9653d3bea3b89,,2,
528,529,0x1e06861976d48,,2,6 months ago
529,530,0x5f9d41289ad44,,2,1 month ago
530,531,0x132ddca39c50d,,2,
531,532,0x7e455caac23eb,,2,28 days ago
532,533,0x9fdaafd74a0d6,,2,4 months ago
533,534,0xd332278a641bf,,2,
534,535,0x0a9cf96cbe9ce,,2,
535,536,0xeca588e75c8eb,zazpowered.eth,2,
536,537,0xf72cf702779a8,,2,1 month ago
537,538,0x811e4327de2db,,2,4 days ago
538,539,0x6959e3ed52ca1,,2,
539,540,0x45f9703424da8,vibedog,2,1 year ago
540,541,0x9ec1a8c290d8e,,2,1 month ago
541,542,0xd2c1a0138716f,,2,11 days ago
542,543,0xf69d00d6b7379,,2,1 month ago
543,544,0x36c217c052260,,2,
544,545,0x04e91ce58a44c,,2,7 days ago
545,546,0x729dd72321762,,2,2 months ago
546,547,0x070360c5b5f61,,2,14 days ago
547,548,0xa374a95b8246c,Cryptokkie,2,14 days ago
548,549,0x485be95e7c865,,2,1 month ago
549,550,0x0eceb7dfc0098,,2,
550,551,0xdbf58407556c9,,2,6 months ago
551,552,0x80ac8b6f4cace,shrimpwen.eth,2,21 days ago
552,553,0xe10824fd1ffb9,robers,2,1 month ago
553,554,0x74be0af0bf725,,2,12 days ago
554,555,0x5aa688127811a,,2,5 hours ago
555,556,0x92662f46cf601,,2,1 month ago
556,557,0x6f574fd71d146,,2,
557,558,0xb6c5b1a489606,robertthewhale.,2,1 month ago
558,559,0x0bf701fed26dd,,2,
559,560,0xedcb09c4e7f5c,,2,1 month ago
560,561,0xd5509e06330ca,,2,1 month ago
561,562,0xddf94e4bcb453,,2,25 days ago
562,563,0xd049b30649908,1conf.eth,2,1 month ago
563,564,0xe85740d4b34f7,,2,1 month ago
564,565,0x96333170e351b,,2,4 months ago
565,566,0x8bd7a05a48d78,Liber8HongKong,2,9 months ago
566,567,0x08882cd344a56,,2,
567,568,0xb4079f1e52930,,2,2 months ago
568,569,0xedb7f337a3e4f,,2,7 months ago
569,570,0xe2e58b5bec8f7,2yeah.eth,2,14 days ago
570,571,0xe896e539e557b,,2,29 days ago
571,572,0xda75f63b9cb1c,leveloneleveltw,2,1 month ago
572,573,0x905f48cbaaaf8,,2,1 month ago
573,574,0xc10b17d37d8eb,,2,28 days ago
574,575,0x502ba21ce0018,,2,5 months ago
575,576,0x01bf9d8ea7d74,,2,
576,577,0xf77813a5af236,,2,28 days ago
577,578,0x0e1f85949ca38,,2,
578,579,0xa15084e5c9649,,2,4 months ago
579,580,0xaaa3f05f25eed,maffs.eth,2,12 days ago
580,581,0x2e50b23af9a31,,2,1 year ago
581,582,0xd1afbe4da2a5a,comfyvault.eth,2,1 day ago
582,583,0xf7121277a5bc6,,2,1 month ago
583,584,0xaf297dec752c9,punkify.eth,2,1 month ago
584,585,0x4eea85960a590,,2,22 hours ago
585,586,0x57524efc73e19,hype.eth,2,1 month ago
586,587,0xc585d35fb8c9d,,2,24 days ago
587,588,0x1e0a980dc878e,tappyvault.eth,2,1 month ago
588,589,0xdb2b36c24064a,skidbladnir.eth,2,12 days ago
589,590,0xee2b7fa69219c,,2,3 days ago
590,591,0xef8d1684b782f,,2,
591,592,0xe9581fb58eb6f,,2,12 days ago
592,593,0x93321b43d594a,,2,
593,594,0x62175ff2a8dac,whitetusker.eth,2,1 day ago
594,595,0x6b1297f88c025,,2,4 months ago
595,596,0x8282d7e1a0ac8,,2,20 days ago
596,597,0x3612b2e93b49f,rudya.eth,2,5 months ago
597,598,0x02a1653b151ba,,2,1 month ago
598,599,0x600f9e6c12edc,,2,
599,600,0xe3e6917802ebf,theoverview,2,1 year ago
600,601,0xce810c1ca6390,CryptoNozem,2,4 days ago
601,602,0xb394f1aa30ba8,Hans,2,11 days ago
602,603,0x8c173b6579c34,honoraryape.eth,2,1 month ago
603,604,0x4925fc8c5a876,,2,1 month ago
604,605,0xf2df969f59b2c,,2,1 month ago
605,606,0xb890f264b1a75,,2,12 days ago
606,607,0xac31cd111b1d1,,2,
607,608,0xffb6d97bd1e7b,lol.eth,2,1 month ago
608,609,0xbf8afa76bcc2f,,2,1 month ago
609,610,0x0a53e28f2f7b2,,2,23 days ago
610,611,0xad3372cd20955,protein.eth,2,3 months ago
611,612,0xc6b7588d99901,,2,5 days ago
612,613,0xa59fe57ddcb39,thegoodone.eth,2,20 days ago
613,614,0xc61aa3a9cc5fe,,2,6 months ago
614,615,0x1fafa69cfbe02,cartagra.eth,2,4 months ago
615,616,0x59bb7bc404ecc,,2,6 months ago
616,617,0x16c5d765eda96,,2,7 months ago
617,618,0x74d430673640c,,2,
618,619,0xfc48426da0338,,2,1 day ago
619,620,0x68d4a6fad7b56,,2,6 months ago
620,621,0x0d4428c8e62e8,,2,
621,622,0x1d12d09793daf,itsfine,2,13 days ago
622,623,0xab6ca2017548a,nftguild.eth,2,19 days ago
623,624,0x4d3dfd28aa358,,2,
624,625,0x24e267d13314d,,2,1 month ago
625,626,0x8a473efb809b1,lipc.eth,2,19 days ago
626,627,0xfcbca52b23db2,,2,1 month ago
627,628,0x289f9f432fb25,,2,1 month ago
628,629,0x31ac9896f4ef5,,2,5 months ago
629,630,0x60417ddabe95d,,2,
630,631,0x2a2efc5adea68,browniesvault.e,2,1 day ago
631,632,0xe9c63600429ee,,2,
632,633,0x4e84a91a450ae,,2,26 days ago
633,634,0x338fd148fa51c,,2,4 days ago
634,635,0xc8b36221cc391,djmirage.eth,2,
635,636,0x274a8b99f93ce,,2,10 months ago
636,637,0x2ab1735ab09f5,,2,26 days ago
637,638,0x279818c822e5c,,2,1 month ago
638,639,0x0f01735fb8fa1,,2,1 month ago
639,640,0xcba7a88c8a62d,,2,20 days ago
640,641,0x1baec9d58603f,metahands.eth,2,1 month ago
641,642,0xbcf489672c2ea,,2,5 months ago
642,643,0x5ac996f059bdb,,2,1 month ago
643,644,0xb10004a5faf2c,,2,1 month ago
644,645,0xbf9f5aeb74b0b,colesouth.eth,2,11 days ago
645,646,0xcd947463c5673,,2,1 month ago
646,647,0xaa14c41fd6cb0,,2,27 days ago
647,648,0x3b99bf61c494e,impaler.eth,2,1 month ago
648,649,0x5c407c4ffffa7,,2,11 days ago
649,650,0xea08297a6cab2,,2,
650,651,0xf6b185daff852,hyozaking.eth,2,2 days ago
651,652,0xa10f5dc7d17ad,,2,
652,653,0xd9c980bb39530,,2,4 days ago
653,654,0xa910fab85e318,,2,6 months ago
654,655,0x5994cb6bbd2de,,2,
655,656,0x1a1824e3c1092,,2,4 months ago
656,657,0xb1cc18a441c35,,2,4 days ago
657,658,0x914f4d27761ed,,2,2 days ago
658,659,0x5ca618c19cc2c,,2,1 month ago
659,660,0xc3c14f31c8db2,,2,21 days ago
660,661,0x0154d25120ed2,,2,4 months ago
661,662,0x21a0a2699f69b,kfactorvault.et,2,4 days ago
662,663,0x3d0ad943a2217,,2,1 month ago
663,664,0x0330414bbf949,,2,1 month ago
664,665,0xc0549087333b7,TheNat,2,1 month ago
665,666,0x40145f291ce12,,2,29 days ago
666,667,0x742117c481f50,,2,20 hours ago
667,668,0x0e79c644ec160,,2,2 months ago
668,669,0xd7ed137bccd58,,2,26 days ago
669,670,0xff70ec37a5d63,,2,29 days ago
670,671,0x12fc6560c1f1e,,2,1 month ago
671,672,0x584075b9f3b49,,2,1 month ago
672,673,0x186980d30a5b7,,2,3 days ago
673,674,0xff43da261edc6,,2,
674,675,0xe16df6503acd3,,2,1 month ago
675,676,0x6ef2376fa6e12,,2,1 month ago
676,677,0xe9325c145551f,,2,
677,678,0x5b098b00621ed,,2,5 months ago
678,679,0x8884f2af43bcb,alien3443.eth,2,4 years ago
679,680,0x050a3bf4cc689,,2,26 days ago
680,681,0x8ca246551ffa9,millennia.eth,2,7 days ago
681,682,0x12f8dee62d483,rhayo.eth,2,11 days ago
682,683,0xcaf02ce74c80c,,2,23 days ago
683,684,0x730fde923a757,,2,
684,685,0x8b10839d33910,,2,1 month ago
685,686,0x7e23a0a9fd110,TJ2010,2,23 days ago
686,687,0x28679a1a63212,emo.eth,2,2 months ago
687,688,0x4cd2c410884ee,,2,
688,689,0xe8966478fe21f,,2,1 month ago
689,690,0x1288e3dad9deb,,2,
690,691,0xff3d22f855b16,chasesteely.eth,2,6 days ago
691,692,0x8a4f86fa90e45,,2,5 months ago
692,693,0x2cefb2804a14c,,2,2 months ago
693,694,0x09d4083ffd20d,,2,26 days ago
694,695,0x0320e2787d5c6,,2,1 month ago
695,696,0x030d7ab474dbc,,2,1 month ago
696,697,0xf91c7f3349f72,,2,
697,698,0x517fe802827c5,,2,7 months ago
698,699,0x88d3574660711,,2,1 month ago
699,700,0x8bf6efbf66d88,fugio.eth,2,12 hours ago
700,701,0xaea8e3bd36921,,2,12 days ago
701,702,0xd3450d0e31b3b,,2,1 month ago
702,703,0xee8dbe1656825,,2,14 days ago
703,704,0x07ecd913d1d43,,2,
704,705,0xe42abe865a7f8,ponkz.eth,2,6 days ago
705,706,0x97916e27632ec,,2,
706,707,0x6186290b28d51,barthazian,2,1 month ago
707,708,0xbd9b7373aac15,AlottaMoney,2,10 months ago
708,709,0x58f18776627c3,,2,3 years ago
709,710,0xd1295fcbaf56b,jckbtchr.eth,2,1 month ago
710,711,0x55530155460d8,,2,5 months ago
711,712,0x9f719e0bc35c4,punk3578.eth,2,10 days ago
712,713,0x33f848d90d2af,,2,18 days ago
713,714,0x7d4c4d5380ca2,soby.eth,2,1 month ago
714,715,0x655c91025a49e,Misha,2,3 years ago
715,716,0xe9e7b800ec5fc,,2,1 month ago
716,717,0x89f42ccb1b901,bel.eth,2,1 month ago
717,718,0xe8d848debb3a3,crazyrabbitLTC,2,21 days ago
718,719,0x96cda18688cb9,,2,3 years ago
719,720,0x534a0076fb7c2,,2,1 month ago
720,721,0x4fe547fa933d7,,2,6 days ago
721,722,0x552f01d67b352,gCAN,2,1 month ago
722,723,0x4ecf4bc905107,cryptoboomer.et,2,14 days ago
723,724,0x7d9f4a3ab2568,wikdst.eth,2,4 years ago
724,725,0xf47ff49820805,,2,1 month ago
725,726,0x2ecbb905fe50b,,2,7 months ago
726,727,0xb9cdeb51bd53f,,2,
727,728,0x17654664d0702,,2,23 days ago
728,729,0xa3274c2223cb6,,2,
729,730,0xc142995f05436,,2,
730,731,0x7e21cdfa60e69,,2,4 months ago
731,732,0x4f94fa697f4ea,,2,2 months ago
732,733,0x7eb28b2f14a59,,2,1 month ago
733,734,0xd9c61c6a41cb7,,2,4 months ago
734,735,0xaf34964b228d7,,2,3 days ago
735,736,0x80be646c17ae7,,2,1 month ago
736,737,0x7aed3163fb1b7,br3wster.eth,2,1 month ago
737,738,0x0e4333f5c4c06,,2,
738,739,0xe675218bba7ec,,2,4 years ago
739,740,0xfba169cc807ed,,2,20 days ago
740,741,0x8a873b31646df,0x8a873b31646df,2,3 years ago
741,742,0xc0d95fbb7bf19,dafky2000-ledge,2,17 days ago
742,743,0x067107af3512a,darkomav.eth,2,5 months ago
743,744,0x124183252c86e,,2,16 days ago
744,745,0xa7eba7fda7e46,,2,21 days ago
745,746,0xbbe0ca2546ae0,,2,6 days ago
746,747,0xe1994b2fd8310,,2,1 month ago
747,748,0x5b21175a82f11,flim.eth,2,10 days ago
748,749,0x04fd71a7c80de,,2,23 days ago
749,750,0x3889a7996ef84,sgtpeppernft.et,2,1 month ago
750,751,0x7cfa31ad04655,,2,6 months ago
751,752,0xde0b9c04571ff,,2,28 days ago
752,753,0x7701adc43d5d3,wew.eth,2,
753,754,0xe8ec6f729adbe,,2,3 days ago
754,755,0x7eac94ecd6073,,2,6 months ago
755,756,0x254459b53c747,,2,4 months ago
756,757,0x9a6a87671ce09,,2,4 years ago
757,758,0xa4ba53ef39037,cye.eth,2,4 months ago
758,759,0x0d2983a4d9e3b,,2,4 years ago
759,760,0x005612ffb145f,,2,4 years ago
760,761,0x6f78c75be220a,,2,4 months ago
761,762,0x2b616914ada84,,2,1 month ago
762,763,0xb148cd1c75bfe,trannytubeclips,2,4 years ago
763,764,0x6b4331048c411,👑💎🙌.eth,2,1 month ago
764,765,0x93d2b052a313e,,2,4 years ago
765,766,0x093eeb5cc712a,,2,4 years ago
766,767,0x838ca689c7035,,2,4 years ago
767,768,0xfbd8a3481bb14,,2,4 years ago
768,769,0x849c1d8452126,,2,4 years ago
769,770,0xf7babf951b80d,,2,29 days ago
770,771,0x3fc1753c90421,,2,4 years ago
771,772,0x9b11aa03c7269,,2,6 months ago
772,773,0xa73dc2f955bca,iamnoname.eth,2,4 months ago
773,774,0xd771b0c6ab94c,,2,
774,775,0xbdf1cdd4102d6,,2,
775,776,0x96e1199931a9e,jabulon.eth,2,1 month ago
776,777,0x7ec0d397db2a0,,2,
777,778,0x2128de0abe7a0,,2,4 years ago
778,779,0xa060870b4824b,,2,4 years ago
779,780,0xeae448e1537aa,,2,1 month ago
780,781,0x311a9ef07f16a,,2,6 months ago
781,782,0x4bc412f54d94e,,2,4 months ago
782,783,0x4d0bc03aae123,punkcouple.eth,2,7 days ago
783,784,0xa555d1ee16780,,2,3 days ago
784,785,0xcce6a9460c605,,2,10 days ago
785,786,0xed3c3bffcf147,kevinkennis.eth,2,1 month ago
786,787,0x6b558c075dce2,light-of-lucife,2,12 days ago
787,788,0x806388e04b758,,2,15 hours ago
788,789,0xcfc8e0aeebed4,,2,1 month ago
789,790,0x88bc3eb0d557a,,2,10 days ago
790,791,0x4de20e4fd3843,,2,29 days ago
791,792,0x5d42b74226b95,,2,
792,793,0xca147eb37135b,,2,
793,794,0xeab4440e98d7d,,2,
794,795,0x3dde27c237944,,2,8 months ago
795,796,0x2978f0e4475c3,,2,1 month ago
796,797,0x8753f62d32f45,,2,11 days ago
797,798,0xa163a1feaea96,,2,1 year ago
798,799,0x471ccd7261159,,2,1 month ago
799,800,0x45c0cd7d47cce,,2,1 month ago
800,801,0xf7a8f04c7fe7c,flx.eth,2,1 month ago
801,802,0xccc003f10b727,,2,11 days ago
802,803,0xa422bfff5daba,cyberh49.eth,2,24 days ago
803,804,0xb0182a35b8114,,2,5 days ago
804,805,0xaf9f8afc41a5e,,2,25 days ago
805,806,0x2f700deed4163,,2,10 days ago
806,807,0x09758e7d6acee,,2,
807,808,0x535278f478c17,,2,6 months ago
808,809,0x07bc45627de24,,2,2 months ago
809,810,0x8f10ae3ffd993,dankp.eth,2,14 days ago
810,811,0xb5fc8914a5d45,kemba.eth,2,1 month ago
811,812,0x0601d0235645a,,2,1 month ago
812,813,0x88a679ddf5ed7,,2,1 month ago
813,814,0x0b390500e5154,,2,2 months ago
814,815,0x037fd5b779c07,,2,1 month ago
815,816,0xca37d80abd979,,2,19 hours ago
816,817,0xcaf473e372348,,2,17 days ago
817,818,0xe5442041fd024,,2,6 months ago
818,819,0x570b4cba2680d,,2,
819,820,0xa6e1ea6de74bd,,2,7 months ago
820,821,0x319d216407f75,,2,1 month ago
821,822,0x6c3675c755c06,,2,1 month ago
822,823,0x1cfbf511a3f67,gld.eth,2,21 days ago
823,824,0xd3d7e517eac43,,2,1 month ago
824,825,0x36df210e3ae69,,2,12 days ago
825,826,0x363ef108036c3,,2,4 months ago
826,827,0x0f576fe0a916c,,2,29 days ago
827,828,0x29664e652ca8f,,2,1 month ago
828,829,0x294c7eb47fa5d,,2,2 months ago
829,830,0x4947da4bef9d7,,2,1 month ago
830,831,0x96ff1d6b5e9ca,8paul.eth,2,1 month ago
831,832,0x940e665891ac1,,2,
832,833,0x997bd6938948e,,2,7 days ago
833,834,0x6625cbce8bcc1,,2,
834,835,0x2debdf4427ccb,krybharat,2,1 month ago
835,836,0x989680e560b33,milliondollarva,2,22 days ago
836,837,0x20cf73d6e0889,,2,10 days ago
837,838,0x3e9dacf58e308,,2,1 month ago
838,839,0x2423b65c54bcf,,2,1 day ago
839,840,0x2458c1fe175d3,,2,9 days ago
840,841,0x77d550883410f,,2,4 months ago
841,842,0xc983b312a2144,,2,1 month ago
842,843,0x3df7ebfefe287,,2,12 days ago
843,844,0x7e0f2bee79885,,2,
844,845,0x2f20872b1517b,,2,
845,846,0x5ea12341d073e,punksvault.eth,2,1 month ago
846,847,0x591660bf3ae48,,2,1 month ago
847,848,0x05e2461c8c101,pleyuh.eth,2,12 days ago
848,849,0x22de60776e093,,2,13 days ago
849,850,0xc43473fa66237,tycoon.eth,2,
850,851,0xf1d601dd082ff,,2,6 months ago
851,852,0x53774b5e18cbd,,2,12 days ago
852,853,0x2ae82657ec1ec,Thing,2,8 months ago
853,854,0x5b7b543e7f1e2,nemavand.eth,2,
854,855,0xf7f7d74ce9fc6,,2,27 days ago
855,856,0x3b93cbfb99560,,2,1 day ago
856,857,0x4c4083b2cc9d4,,2,1 month ago
857,858,0xb09861246e414,bobeglz.eth,2,1 month ago
858,859,0xd57818a9c867a,,2,4 months ago
859,860,0xb2af1b81283c8,,2,
860,861,0x75b6240f94616,,2,1 month ago
861,862,0x850b57fa5e6cf,,2,1 year ago
862,863,0xeb09a1a4d4904,,2,1 month ago
863,864,0x8d80dac6f8ce4,whales-wife.eth,2,2 months ago
864,865,0x73ee162482649,,2,7 months ago
865,866,0xc9d483b27701a,,2,7 months ago
866,867,0x1c051112075fe,valleypunk.eth,2,1 month ago
867,868,0x9acbb54d3d5ae,,2,1 month ago
868,869,0xa4288ba106268,,2,1 month ago
869,870,0x98e639b648144,,2,18 days ago
870,871,0xfe61b0164168b,,2,1 month ago
871,872,0xf942258c095f1,whiterabbit1111,2,1 day ago
872,873,0xd35b392b385ac,mxb.eth,2,1 month ago
873,874,0x6b6ae848f555f,,2,4 days ago
874,875,0xb47e3cd837ddf,,2,
875,876,0xdc5556ff5f67b,,2,1 month ago
876,877,0x9c0a836384a2f,,2,15 days ago
877,878,0xbcb925ea8d433,,2,
878,879,0x070c171bc2fbe,rocketgirl.eth,2,5 months ago
879,880,0x4d1f556f805a1,,2,
880,881,0xb9f5039273a63,adaugelli.eth,2,5 months ago
881,882,0xaab694b386e8b,,2,29 days ago
882,883,0x399abd36b9c7c,,2,21 days ago
883,884,0x694eda027342a,,2,1 month ago
884,885,0x0199f4bef6421,,2,5 months ago
885,886,0xc1ba29de79990,,2,
886,887,0x7a30229cffd81,,2,20 days ago
887,888,0x997eda8be8c50,,2,2 months ago
888,889,0x283d4f6752f4d,,2,7 months ago
889,890,0x571c513df5624,,2,27 days ago
890,891,0x194f54de17b95,,2,
891,892,0x5c41720db0623,,2,
892,893,0x10e2cfcb09918,,2,10 days ago
893,894,0x11d1b553bd0cb,,2,
894,895,0xa62da2ea9f5bb,,2,
895,896,0x4c9da55bf1eae,foil.eth,2,29 days ago
896,897,0x05b2ad74e7387,,2,1 month ago
897,898,0x0713a6c6fd18b,,2,27 days ago
898,899,0x321efa6e20cb4,evantanvault.et,2,15 days ago
899,900,0xe6c38d64119f1,,2,14 hours ago
900,901,0x2f64b9c5e4b24,,2,11 days ago
901,902,0x370ceca4fc128,,2,1 month ago
902,903,0xe3bf862ea7e60,,2,4 days ago
903,904,0xbce3bd3b20694,bibdieufr,2,1 year ago
904,905,0x1fca36eccfdf8,,2,25 days ago
905,906,0x78765246d67f7,joe9109.eth,2,4 days ago
906,907,0x047d0cb513a2c,,2,1 month ago
907,908,0x989c7f78b7c2a,,2,8 days ago
908,909,0xeabf797f9e2d8,,2,1 month ago
909,910,0xe41e1256ec170,,2,
910,911,0xbd19b1833c7a4,grth.eth,2,5 months ago
911,912,0xdc7b5db4ff464,douzo.eth,2,1 month ago
912,913,0x9616e39917f7c,,2,1 month ago
913,914,0x83d66b34c20d1,,2,4 months ago
914,915,0xdc546f477f273,BlackBoxDotArt,2,1 year ago
915,916,0x5f3fb82ba7d99,,2,25 days ago
916,917,0x4ff05543d3a53,,2,3 days ago
917,918,0x739e2c99f019c,pichiruchi.eth,2,
918,919,0xb386e736e1997,,2,
919,920,0xd1c44141ef925,,2,27 days ago
920,921,0x9e69a931ccb27,,2,5 months ago
921,922,0x56cc38e1b0e35,,2,
922,923,0x324f6ead99aed,chomper.eth,2,12 days ago
923,924,0x23f7077bfe23d,,2,6 months ago
924,925,0xe8054719d9a9a,,2,1 month ago
925,926,0x85560dbef2533,,2,19 days ago
926,927,0xc09b592a25e45,,2,1 month ago
927,928,0xdcb48561ad264,,2,
928,929,0xe4bbcbff51e61,,2,1 month ago
929,930,0xbfd706113a65a,,2,7 months ago
930,931,0x10a2dfb788a57,,2,1 month ago
931,932,0xbe8fe12b9eb1c,,2,29 days ago
932,933,0xc3c0465798ce9,,2,8 days ago
933,934,0x42d2b7b782094,,2,25 days ago
934,935,0x9992dbb5eeff8,,2,19 days ago
935,936,0x46b4fa32beb80,,2,7 months ago
936,937,0x2891a448d93c6,,2,2 days ago
937,938,0xedf7b675a2fe3,🖕🖕🖕.eth,2,23 hours ago
938,939,0x41d5c91836cb9,,2,1 month ago
939,940,0x6336fbba58a55,,2,21 days ago
940,941,0x0c3195dee4277,0x0c3195dee4277,2,11 days ago
941,942,0x4a8b9e2c2940f,,2,1 month ago
942,943,0x3d5569d3e5f4e,ghash.eth,2,1 month ago
943,944,0xde03d31d4eaf0,,2,2 years ago
944,945,0x98949eaa11891,,2,11 days ago
945,946,0xa247f72c76981,,2,1 month ago
946,947,0x33b17a8d3578d,,2,12 days ago
947,948,0xb52343dbb87db,,2,
948,949,0x99b57c09f37a3,,2,24 days ago
949,950,0x9b1a161bdb6cd,,2,
950,951,0x702e9e66a1008,,2,7 months ago
951,952,0x052ffed486e44,,2,2 years ago
952,953,0x6a0ed38200992,,2,7 months ago
953,954,0xd9633d413da47,littlehouse.eth,2,2 months ago
954,955,0x92fab452e2f14,Nissla,2,1 year ago
955,956,0x967fb96af78fe,,2,2 years ago
956,957,0xe8c4156a19951,,2,11 days ago
957,958,0xebe7f3f59fe53,,2,27 days ago
958,959,0x30e924cff3c2a,,2,1 month ago
959,960,0xa7be95bc5e961,,2,
960,961,0x83f5eea3ba341,,2,2 months ago
961,962,0x64e9cd118aa8d,🍊juice.eth,2,28 days ago
962,963,0x9cb8c1463471e,,2,2 months ago
963,964,0x0b4338671b26d,,2,1 month ago
964,965,0x35896365927c1,,2,19 days ago
965,966,0x76fb2ebe42951,,2,
966,967,0xea9724fe1b46b,,2,2 months ago
967,968,0x19771dbdfd5a3,,2,
968,969,0x8133a5dcba303,,2,6 months ago
969,970,0xa35b23d5229d1,,2,1 month ago
970,971,0x5efdb6d8c798c,schmrypto.eth,2,13 days ago
971,972,0x285ce8250bda1,,2,24 days ago
972,973,0xede64a571cfe9,ape1710.eth,2,20 days ago
973,974,0x9964354805c07,,2,29 days ago
974,975,0x9dcf985075d94,,2,1 month ago
975,976,0x07e7269a252e5,,2,
976,977,0xe281b9d3de7a5,,2,1 month ago
977,978,0x86ab846eab1db,qiwave,2,1 month ago
978,979,0x1b672e08c3cc6,twinflames.eth,2,1 month ago
979,980,0xceb8108f65d98,,2,
980,981,0x98d365a3df971,kevwuzy.eth,2,1 month ago
981,982,0xda202a4e570e2,,2,7 months ago
982,983,0xa1b2c17995531,,2,7 months ago
983,984,0x03490e013f473,,1,3 days ago
984,985,0x106ac341e36e9,nifty_man,1,1 year ago
985,986,0xf3fd33ce76511,,1,1 month ago
986,987,0x38caf2d24a26a,,1,9 days ago
987,988,0x581e2463e6705,,1,
988,989,0x3ebd49a71b96f,,1,22 days ago
989,990,0x2befb4c92c3af,vdp.eth,1,3 days ago
990,991,0x1583b0c3a4e2a,,1,18 days ago
991,992,0x36e9552f095b7,,1,7 months ago
992,993,0x09ba0d8c6e101,ayapunk.eth,1,16 days ago
993,994,0x7508e4c5f13e3,,1,1 month ago
994,995,0x687ecbe143f6c,,1,
995,996,0xa494876207ae8,,1,4 months ago
996,997,0xd7be28bab7d7e,bigshades.eth,1,1 month ago
997,998,0xaa4672a1ae16e,,1,1 month ago
998,999,0x2d6dbbe8e3040,,1,4 months ago
999,1000,0x0688d9c02df34,,1,5 months ago
1000,1001,0x438ca4aedd7f6,,1,
1001,1002,0xfa53d837b5ddd,,1,1 month ago
1002,1003,0x5071f6651e53c,,1,1 year ago
1003,1004,0x13d33c9f2f3e7,brojackson.eth,1,19 hours ago
1004,1005,0xc0fba4c4a1d02,,1,1 month ago
1005,1006,0x35860583266f6,fewocious.eth,1,2 months ago
1006,1007,0xa5d76cee9e7df,,1,1 hour ago
1007,1008,0x5a253d1e88d57,,1,2 months ago
1008,1009,0x05467ecea464e,,1,12 days ago
1009,1010,0xed345b69b6808,,1,26 days ago
1010,1011,0xb0ca2e19356f7,😎‍‍‍‍.eth,1,4 days ago
1011,1012,0x28c695abc5f28,,1,1 month ago
1012,1013,0x3c1d6deb260a1,grayduck.eth,1,8 months ago
1013,1014,0x1a95fc83a6237,,1,26 days ago
1014,1015,0x0c9afdb2b8fe7,,1,1 month ago
1015,1016,0x639baab33a161,,1,4 months ago
1016,1017,0xeb4d2e17a1fa8,⛳⛳⛳.eth,1,
1017,1018,0x9de43abbcc3b0,thegardener.eth,1,27 days ago
1018,1019,0x4710e331ccebb,,1,2 years ago
1019,1020,0x481676150018b,,1,29 days ago
1020,1021,0xc924f3e3a0991,,1,2 months ago
1021,1022,0x0fc185c24cb5c,,1,
1022,1023,0x88a6d547577c9,,1,4 months ago
1023,1024,0xcd352300c3c91,,1,1 month ago
1024,1025,0xc219cafde6855,,1,1 month ago
1025,1026,0x2ee8670d2b936,FractalLushTapi,1,
1026,1027,0xb6e578b246061,,1,2 years ago
1027,1028,0x5743e4384d214,shanev.eth,1,4 months ago
1028,1029,0xcb1df68fd314e,,1,
1029,1030,0xcf74e42266de8,,1,4 months ago
1030,1031,0x2b468e7950e79,,1,12 months ago
1031,1032,0x75b9a53e647b8,,1,
1032,1033,0x3b7f246d8340d,happypunk.eth,1,2 days ago
1033,1034,0x0328a5783da08,ire.eth,1,4 months ago
1034,1035,0x743b877a0f808,,1,1 month ago
1035,1036,0x14637bfe08f62,,1,26 days ago
1036,1037,0xb5d13af0b364b,,1,7 months ago
1037,1038,0xa16a9fd8d572c,,1,1 month ago
1038,1039,0xa1c0a5c8b0167,,1,
1039,1040,0xe5ee2b9d5320f,foobardev.eth,1,1 month ago
1040,1041,0xf7845cc3d24a5,shitcoinape.eth,1,16 days ago
1041,1042,0x258fc9060735e,thepanda.eth,1,5 months ago
1042,1043,0xf32c7013ddf9c,,1,
1043,1044,0xa14964479ebf9,defibrian.eth,1,1 day ago
1044,1045,0x7af3321233647,,1,8 days ago
1045,1046,0x53acf5f130e52,,1,1 month ago
1046,1047,0xbf1c1119c6e34,,1,1 month ago
1047,1048,0x8aa04ed102fcc,,1,7 months ago
1048,1049,0xc948eb5205bde,,1,7 days ago
1049,1050,0x6027b4c9ad98a,,1,18 days ago
1050,1051,0x5384b8987a3ca,,1,1 month ago
1051,1052,0xacdaeeb57ff68,,1,
1052,1053,0x4c6d87a0df502,,1,1 month ago
1053,1054,0x8785b79078c70,,1,
1054,1055,0x41a3c90f80848,reemixed.eth,1,26 days ago
1055,1056,0x003f6b20bfa4b,snxprofessor,1,1 year ago
1056,1057,0xd3a2a74097cdf,,1,1 month ago
1057,1058,0x7aae0c227152c,,1,1 month ago
1058,1059,0x32f34871e9eea,,1,5 months ago
1059,1060,0xaea57cbf42775,,1,9 days ago
1060,1061,0x9c3862a291ab3,,1,1 month ago
1061,1062,0x5f538ec1cc30f,,1,1 month ago
1062,1063,0x5b1de882c3a51,,1,
1063,1064,0x7caac653b302d,dvmrn.eth,1,7 months ago
1064,1065,0xc2592fcf38087,,1,3 months ago
1065,1066,0x48d8bbfd42a5c,,1,5 months ago
1066,1067,0x893f0c61d2bed,,1,5 months ago
1067,1068,0x2e0a4f6c749a7,,1,
1068,1069,0x0ec5b42d53c60,,1,4 months ago
1069,1070,0x1db2ebea736f8,punk1369.eth,1,18 days ago
1070,1071,0x40a628d16be2b,heygareth.eth,1,4 days ago
1071,1072,0x0f692f4a86267,,1,3 months ago
1072,1073,0xd800fc90efa85,,1,5 months ago
1073,1074,0xc36efbcec5d2b,,1,26 days ago
1074,1075,0xbde2ddc49a2e6,confusedcollect,1,1 month ago
1075,1076,0xe518e48d6dd5a,,1,
1076,1077,0x5c4fe960950ba,,1,
1077,1078,0xcae51ae80efd5,,1,
1078,1079,0x1819bc55d09e4,,1,3 days ago
1079,1080,0xe9243b443f7ae,,1,1 month ago
1080,1081,0xbfe8270d85cae,lemondrop,1,7 months ago
1081,1082,0x0b3dd710354d6,,1,3 days ago
1082,1083,0xf905bbe7b1743,,1,3 months ago
1083,1084,0x98d633d2df5e7,antagonist4ever,1,
1084,1085,0x4172f18124b82,,1,
1085,1086,0xb4b878999ed30,,1,
1086,1087,0x0242b0488df73,,1,7 months ago
1087,1088,0x1fb540757cfd6,,1,1 month ago
1088,1089,0x085843dbde124,,1,1 month ago
1089,1090,0xd5438faf73f8d,helpchain.eth,1,23 days ago
1090,1091,0x38d0dbecda3b8,,1,6 days ago
1091,1092,0x151dcb7d7c0ba,,1,
1092,1093,0xd55ff85c850b1,,1,
1093,1094,0x3a56dbbad7951,,1,21 days ago
1094,1095,0xced2662fe30d8,ArtbyMLO,1,1 year ago
1095,1096,0x42eb89cb1714a,,1,28 days ago
1096,1097,0xf197abcac1788,,1,5 months ago
1097,1098,0x7a534e82fe3ae,galaxyvault.eth,1,
1098,1099,0x9734223269742,,1,
1099,1100,0x6bf97f2534be2,Mr_0x,1,4 months ago
1100,1101,0x6d2a4fad14d43,,1,
1101,1102,0xe41691564a883,,1,4 months ago
1102,1103,0x85257f61bcf59,,1,4 months ago
1103,1104,0x80f9f1e3affe9,,1,
1104,1105,0xf2907acb30273,,1,4 days ago
1105,1106,0x20654e37f79d5,,1,17 days ago
1106,1107,0x426baae6b2382,,1,2 years ago
1107,1108,0xb34519875ef21,,1,1 month ago
1108,1109,0x0e103abb5459d,,1,
1109,1110,0x9649e370ee6fa,,1,4 months ago
1110,1111,0x97fdf679ee5cc,,1,3 days ago
1111,1112,0x704c978d50590,OnlyToasted,1,1 month ago
1112,1113,0x78624c31b56cc,,1,1 month ago
1113,1114,0x341e1cb13eade,,1,7 months ago
1114,1115,0xbb511aa071cef,,1,
1115,1116,0x69e17c53b4b7f,,1,12 days ago
1116,1117,0xa635a54b4305d,piprycto.eth,1,1 month ago
1117,1118,0x0d7bf612ab0ba,,1,3 months ago
1118,1119,0x42f84b1f43e42,,1,
1119,1120,0xfda9b8538b0e7,,1,1 month ago
1120,1121,0x31b415f5213d0,csmcbride,1,2 years ago
1121,1122,0xd68c599a549e8,,1,6 days ago
1122,1123,0x742709470afbf,markgillespie.e,1,1 month ago
1123,1124,0x2860762b63e9c,,1,12 days ago
1124,1125,0x3c1cf8e31e7b6,,1,
1125,1126,0x42777c8f6d842,,1,
1126,1127,0xe4928815a8d65,,1,1 month ago
1127,1128,0x97df81b8bee95,,1,
1128,1129,0xe92c9ed9e2273,,1,7 months ago
1129,1130,0x95e8bc9704ed8,blixx.eth,1,2 months ago
1130,1131,0x312b0a6eda0b5,,1,23 days ago
1131,1132,0x1a1dd4f1549ae,marb.eth,1,1 month ago
1132,1133,0xd839464c71129,cryptojacque.et,1,1 month ago
1133,1134,0x8c97cf28138c0,,1,7 months ago
1134,1135,0x55e7ca8f9799c,,1,24 days ago
1135,1136,0xf3e6ba583b960,,1,1 month ago
1136,1137,0x3d280fde2ddb5,,1,1 month ago
1137,1138,0x351896e85b8ff,,1,4 months ago
1138,1139,0xa041418bcb718,,1,17 days ago
1139,1140,0xe1db8391debe1,,1,1 month ago
1140,1141,0x038f720e10999,,1,7 days ago
1141,1142,0xc2764c96dcb65,swit.eth,1,1 month ago
1142,1143,0xeca2444e8672a,dilip.eth,1,23 days ago
1143,1144,0xc7d88742fc88d,ai-222.eth,1,22 days ago
1144,1145,0x08195cac6f2e2,,1,
1145,1146,0x71546e6ae9725,,1,5 months ago
1146,1147,0x7f09599e49939,,1,25 days ago
1147,1148,0x7e1377ef1e4e7,,1,13 days ago
1148,1149,0x1e2f87542ba49,darthvault.eth,1,
1149,1150,0xc4b9d206b5a46,,1,1 month ago
1150,1151,0xdc43823c8d5f4,almanac-vault.e,1,
1151,1152,0xb104371d5a268,cadboros.eth,1,3 months ago
1152,1153,0xcda094bf48988,,1,18 days ago
1153,1154,0x9c5083dd4838e,,1,1 month ago
1154,1155,0xdb1c00a5cdc18,,1,
1155,1156,0x52c8bcd852c47,,1,25 days ago
1156,1157,0x0c2db7cb6d59b,2blockchainz.et,1,1 month ago
1157,1158,0xac13adfd264df,,1,26 days ago
1158,1159,0x1d163a711f07b,,1,7 days ago
1159,1160,0x0120b4134354d,,1,29 days ago
1160,1161,0x3dca3617acf5e,,1,7 months ago
1161,1162,0xef8820e0829ba,,1,
1162,1163,0x85817e1c38b46,,1,
1163,1164,0x32c8d674e5012,,1,1 month ago
1164,1165,0xca3be8fcc0bb1,,1,1 month ago
1165,1166,0x302864d6bb190,,1,1 month ago
1166,1167,0x77a22740a5b4e,,1,
1167,1168,0xdecaf9cd2367c,,1,
1168,1169,0x2f116785e0948,crash3d.eth,1,1 month ago
1169,1170,0x50cde770461ef,,1,5 months ago
1170,1171,0xec4b065f11ba9,,1,3 months ago
1171,1172,0xcd879e8fa1e9b,,1,15 days ago
1172,1173,0x560e77cba63ef,,1,6 months ago
1173,1174,0x8b087f09d7700,,1,5 months ago
1174,1175,0x9273eb21bc985,,1,
1175,1176,0xd4b9ae55f9aee,,1,
1176,1177,0xc4f842b2ed481,remixr.eth,1,24 days ago
1177,1178,0xa083afa219bb7,,1,7 months ago
1178,1179,0xd7510a925475c,,1,1 month ago
1179,1180,0xa875458528429,,1,
1180,1181,0xad74d773f534d,,1,1 month ago
1181,1182,0x05eac52cd2f60,,1,
1182,1183,0x130e751af7a78,,1,1 month ago
1183,1184,0x10e7644e76dad,,1,28 days ago
1184,1185,0x98d562c7a4781,avcdsld,1,1 year ago
1185,1186,0x93d020b0c5158,,1,4 months ago
1186,1187,0x5b68ee14964c2,,1,2 years ago
1187,1188,0x67f57e1e8f034,,1,
1188,1189,0x3bb0fe1d19e1f,,1,1 year ago
1189,1190,0xbaea3cf94abd0,,1,
1190,1191,0x04a30167ceea3,,1,
1191,1192,0x08e32df01ae93,,1,
1192,1193,0x7d6e292d76b87,goblue〽.eth,1,6 months ago
1193,1194,0x52744218fa706,,1,1 month ago
1194,1195,0xf9ea2b06c0410,,1,2 months ago
1195,1196,0xebc8ff259cf9e,,1,1 month ago
1196,1197,0x762b35b809ac4,,1,12 days ago
1197,1198,0xbc9eca6408cd7,,1,
1198,1199,0x7500af1f7f829,,1,4 months ago
1199,1200,0x7cfa1265394f8,,1,
1200,1201,0xeee5eb24e7a0e,illestrater.eth,1,9 months ago
1201,1202,0xc665a60f22dda,,1,23 days ago
1202,1203,0x0dc467f5914b4,,1,
1203,1204,0xd3d360bfa8b20,d3d3.eth,1,1 month ago
1204,1205,0x1cbb87bb9a4dd,,1,12 hours ago
1205,1206,0x561b0145d8f52,,1,1 year ago
1206,1207,0x73347bdf5ab7a,,1,29 days ago
1207,1208,0x517ffcd71e93b,,1,6 months ago
1208,1209,0x3e863b9ede98c,nekomui.eth,1,1 month ago
1209,1210,0x442c2ac97c47f,,1,
1210,1211,0x2e0d63ffcb08e,flashrekt.eth,1,5 months ago
1211,1212,0xec959f4043c7f,,1,7 months ago
1212,1213,0x07192090b69eb,,1,1 month ago
1213,1214,0xc8c4ab6e1e7dc,LeandroCM,1,1 year ago
1214,1215,0xd45c67f5152cf,,1,2 months ago
1215,1216,0xa566b90070965,,1,
1216,1217,0xee7c714ff1677,,1,4 days ago
1217,1218,0xac768d475e39f,,1,12 days ago
1218,1219,0x13c59c501f855,,1,1 month ago
1219,1220,0xd3804a3c24597,,1,
1220,1221,0x0969a43951cda,degenvault.eth,1,
1221,1222,0xe0908c4bb4fb2,,1,5 months ago
1222,1223,0xd9a77b788bb21,,1,1 year ago
1223,1224,0x5cde157b494db,,1,1 month ago
1224,1225,0x04796671fe4ca,jaybo.eth,1,1 month ago
1225,1226,0x7cc95c19422be,uglypunky.eth,1,1 month ago
1226,1227,0x41d6651e1cfce,,1,2 days ago
1227,1228,0xab6a4b6720fd6,silenok.eth,1,
1228,1229,0x9a2843dddce80,,1,
1229,1230,0x8f1bb5c9ed943,caffvault.eth,1,
1230,1231,0x3427f97b83fa8,,1,13 days ago
1231,1232,0xbb67fbf829c29,,1,1 month ago
1232,1233,0x18dd209c77fd6,,1,12 days ago
1233,1234,0x7779756dc9f66,metamix.eth,1,4 months ago
1234,1235,0x8ca440e6e8ad6,,1,1 month ago
1235,1236,0x355c0d364caa4,,1,20 days ago
1236,1237,0x45795e6abe6be,,1,
1237,1238,0x12cfb1db767fe,,1,1 month ago
1238,1239,0x61ab218a4206b,,1,1 month ago
1239,1240,0x14b96ecc9f91b,,1,5 months ago
1240,1241,0x416219965d7f4,,1,26 days ago
1241,1242,0xbc90486d4646d,,1,4 days ago
1242,1243,0x13f137d638c4a,,1,7 months ago
1243,1244,0x4edddd1b1fdd8,,1,1 day ago
1244,1245,0xdefbb4e3ac96d,,1,1 month ago
1245,1246,0x27ae7d19ae7e2,,1,
1246,1247,0x4683d126f02e6,,1,
1247,1248,0x180669310d089,,1,11 months ago
1248,1249,0x8227ea0f64505,,1,
1249,1250,0xb0d3d06b8aec8,,1,
1250,1251,0xb62986dc13663,,1,
1251,1252,0x4e79b9e54f84e,,1,
1252,1253,0xb2f772aa21df8,,1,4 days ago
1253,1254,0x032dabfb0998b,,1,
1254,1255,0x7e75ebac27116,,1,1 month ago
1255,1256,0x7f9b8c7bd7975,,1,2 days ago
1256,1257,0xd03d26b36642c,,1,1 month ago
1257,1258,0xfbb886ef95a06,,1,
1258,1259,0x05ce47b5e9307,,1,3 months ago
1259,1260,0x070728a3ae1e7,,1,23 days ago
1260,1261,0xb67d58cffae63,dannyukes.eth,1,2 months ago
1261,1262,0xd2e4d4cbd9b99,,1,4 months ago
1262,1263,0x92814702b5af9,,1,9 days ago
1263,1264,0xbe535c49d8e65,,1,1 month ago
1264,1265,0x97594a1c1def0,,1,27 days ago
1265,1266,0xb072eaa86fac4,,1,4 hours ago
1266,1267,0x4d6906b088ed0,,1,6 days ago
1267,1268,0xb87f32ec03b02,,1,2 months ago
1268,1269,0x206dae78dd234,,1,7 months ago
1269,1270,0x22fa8cc33a423,,1,18 days ago
1270,1271,0x90078dbce08a0,,1,5 months ago
1271,1272,0xe8dd8d6d3c266,,1,
1272,1273,0x1dabc3b1e6e68,,1,20 days ago
1273,1274,0xf8193a2508ed9,,1,
1274,1275,0x54b174179ae82,,1,6 days ago
1275,1276,0xed5bd59ae895b,,1,4 months ago
1276,1277,0xebde1c486971a,,1,6 months ago
1277,1278,0x7114d6999eb4b,,1,
1278,1279,0x28d8c3f9a6526,,1,
1279,1280,0x96fdfd3bc8cd6,,1,19 days ago
1280,1281,0xbcb6b159192c2,,1,
1281,1282,0xe113e7b1e8ecd,niwin,1,1 month ago
1282,1283,0x2b0ed47f0bf37,5427.eth,1,6 days ago
1283,1284,0xb14432c8907d1,shane.eth,1,
1284,1285,0xea333c8ebac20,,1,
1285,1286,0xbf09e79a558ee,,1,1 year ago
1286,1287,0xd6406c9838e14,,1,
1287,1288,0xb98d10d9f6d07,CoffreFort_G4SP,1,
1288,1289,0xd96bcbc1071c8,,1,1 month ago
1289,1290,0x775db6a235323,,1,4 days ago
1290,1291,0x2604fb7b2c561,yuppie.eth,1,9 days ago
1291,1292,0x4b2a62efd6cc5,,1,1 month ago
1292,1293,0xb86a550ac57af,,1,7 months ago
1293,1294,0x7a44d904e5372,elderryan.eth,1,19 days ago
1294,1295,0xf453c52477631,,1,
1295,1296,0xcfbae0fd418b6,,1,13 days ago
1296,1297,0x3ab6122981242,neemajay.eth,1,28 days ago
1297,1298,0x7bf7b9436eeff,,1,4 months ago
1298,1299,0x649f69ccd077d,,1,1 month ago
1299,1300,0x634aba7402ad0,,1,5 months ago
1300,1301,0x9dd4d1552fe89,,1,5 months ago
1301,1302,0x71f388113818e,,1,
1302,1303,0x8e27bd3733591,,1,
1303,1304,0x41dd2c4372460,,1,
1304,1305,0x641cf19cbd836,,1,1 month ago
1305,1306,0xe9bb41714347b,,1,
1306,1307,0x50f2242cda7df,,1,
1307,1308,0xfebaeca1976af,guglielmovault.,1,
1308,1309,0x914f2e94a1a01,,1,
1309,1310,0xbd080863995b7,,1,
1310,1311,0x8dd60e2a4a595,,1,2 months ago
1311,1312,0xeb381fcfe8c91,,1,
1312,1313,0x3b417faee9d2f,,1,4 months ago
1313,1314,0x3680eaf1f85be,,1,
1314,1315,0xc26012491b9df,,1,
1315,1316,0x738175db2c999,0xfranklin.eth,1,1 month ago
1316,1317,0x638b2619bfabf,,1,1 month ago
1317,1318,0xacf1f202160c5,,1,1 month ago
1318,1319,0xfff423212eb0b,,1,
1319,1320,0x6cbd72900b2e1,schreiber.eth,1,3 months ago
1320,1321,0x550e970e31a45,opensea.wtf,1,
1321,1322,0x9d2d3944eb45f,,1,1 month ago
1322,1323,0xdbc522931928f,frenetikvoid.et,1,6 months ago
1323,1324,0x2c92fce8cdfe1,catycat,1,
1324,1325,0xee582e716f540,,1,
1325,1326,0x56d9543289a69,,1,1 month ago
1326,1327,0xc56d2cd771747,,1,24 days ago
1327,1328,0xcf6a521e36fa3,,1,7 months ago
1328,1329,0xd760ef23c9a20,,1,23 days ago
1329,1330,0x13aff6b6d6ad0,,1,1 month ago
1330,1331,0xd2d628156b947,,1,10 days ago
1331,1332,0x6d6a443ed637a,,1,1 hour ago
1332,1333,0xe35c3d08163da,lmpostor.eth,1,3 days ago
1333,1334,0x083a1166fa473,,1,1 month ago
1334,1335,0x4f582c02da18c,,1,
1335,1336,0x8af2bd409ea02,,1,3 months ago
1336,1337,0xb5cae9ea8f463,,1,1 month ago
1337,1338,0x90e5aa59a9df2,andy8052.eth,1,1 month ago
1338,1339,0xafa3a87e6b417,,1,3 days ago
1339,1340,0x354e09e3ae102,,1,1 month ago
1340,1341,0xc72d57b880a98,,1,
1341,1342,0x9b31fe02afa84,,1,1 month ago
1342,1343,0xd7b10538107b1,,1,
1343,1344,0xc87c5a6702abd,,1,5 months ago
1344,1345,0x8cf9964b45e24,,1,
1345,1346,0xdaba22b5988bd,,1,
1346,1347,0x5c5a4ae893c42,,1,4 months ago
1347,1348,0x5fbe6352e414c,,1,1 month ago
1348,1349,0xdce0992e4579a,,1,1 month ago
1349,1350,0x738df6bfd711d,,1,
1350,1351,0x586f4a17c9b37,,1,
1351,1352,0xe545c0d41c622,,1,6 days ago
1352,1353,0xa80faecac9570,scriptvault.eth,1,12 days ago
1353,1354,0x98b69ed56718a,,1,6 months ago
1354,1355,0x975779102b2a8,,1,1 month ago
1355,1356,0x7675cf4abb1a1,,1,
1356,1357,0xa524d8b55ffa5,,1,1 month ago
1357,1358,0x4803e1d536c2c,,1,
1358,1359,0x9428e55418755,catman.eth,1,18 days ago
1359,1360,0x614a61a3b7f2f,reneil1337,1,3 months ago
1360,1361,0xf1bb659a40f94,,1,1 month ago
1361,1362,0x5e78f1958b8dd,,1,
1362,1363,0x203bc267a4657,,1,3 months ago
1363,1364,0x190378d08d82b,,1,1 day ago
1364,1365,0xc1cfb95a5bda9,,1,
1365,1366,0x54f4a1a17e077,,1,1 month ago
1366,1367,0x725cb569b0790,,1,
1367,1368,0x87bf15a24b72b,,1,
1368,1369,0xf6598ca199dc7,richardliang.et,1,1 month ago
1369,1370,0x0e1ea689e197d,,1,
1370,1371,0xd5b3516727e5c,,1,7 months ago
1371,1372,0xd0732c8e259a5,,1,
1372,1373,0x2da9b7e308ba9,,1,1 month ago
1373,1374,0x2b0785087f6ca,masklab.eth,1,1 month ago
1374,1375,0x37da0d6e65fa0,,1,10 days ago
1375,1376,0xf95209818d998,,1,1 month ago
1376,1377,0xb44bc877b5103,,1,5 days ago
1377,1378,0x3ba53cea97bff,,1,6 months ago
1378,1379,0x46ea9ed91bdfb,,1,5 days ago
1379,1380,0x53dda0a69992b,cryptodubs.eth,1,1 month ago
1380,1381,0xf4493a8f3c990,,1,8 months ago
1381,1382,0xf2626eadce879,,1,
1382,1383,0x794098dfa2202,,1,
1383,1384,0xde2901dc7e38c,,1,29 days ago
1384,1385,0xfe51c1bbb0147,,1,3 days ago
1385,1386,0x87c7980bed0dd,,1,2 months ago
1386,1387,0xb4b8d2f1f52d9,,1,
1387,1388,0xcc8f12c8404b8,,1,6 months ago
1388,1389,0x53124d6b605ae,,1,1 month ago
1389,1390,0xe71181e880c7a,,1,
1390,1391,0x873a209f4894b,,1,
1391,1392,0x66b064b5fac00,diamantz7,1,1 year ago
1392,1393,0x5fe98e31d121f,,1,1 month ago
1393,1394,0x02970c31a80f7,aviexkakkar.eth,1,1 month ago
1394,1395,0x4ee538b3a9c12,,1,19 days ago
1395,1396,0xa8a83c0a6faba,tlnft.eth,1,2 days ago
1396,1397,0x0a0a224fbe845,,1,29 days ago
1397,1398,0x4ebc8db52b6cb,,1,
1398,1399,0x585d6687d7afd,,1,1 month ago
1399,1400,0x34558f1219a6c,,1,
1400,1401,0x81d910ed42d8f,,1,
1401,1402,0x2ac0757842a29,,1,1 month ago
1402,1403,0xd0add237f1cd2,,1,4 days ago
1403,1404,0x54f35e5464222,,1,
1404,1405,0x784b8fc9a37b8,,1,3 months ago
1405,1406,0xc7f354b172e53,,1,17 days ago
1406,1407,0xf1c0fd4539156,,1,1 month ago
1407,1408,0x38a4d889a1979,literally⠀shaki,1,3 months ago
1408,1409,0x1f01d99a90ad0,posvar.eth,1,4 months ago
1409,1410,0x3d8ab45cd4147,,1,8 months ago
1410,1411,0xf6210b4bb2fe8,vetinary.eth,1,14 days ago
1411,1412,0x15a4c23e7e405,,1,
1412,1413,0xdbc30d47297b5,thedrip.eth,1,1 month ago
1413,1414,0x09b6f9717e042,,1,7 months ago
1414,1415,0x2a7eaafb6dd11,,1,14 days ago
1415,1416,0x28a187716b6d1,,1,
1416,1417,0xf2012b3ae4e85,,1,5 days ago
1417,1418,0x9225ae631a95c,,1,
1418,1419,0x853dc65b4f239,fallingleaf.eth,1,
1419,1420,0xbf8f78b193070,,1,21 hours ago
1420,1421,0x569bf4ddeb298,,1,
1421,1422,0x0b878599b37e6,,1,7 months ago
1422,1423,0xb20898ad9ae01,lostpunks.eth,1,1 month ago
1423,1424,0xdb5a7b0728aa0,,1,
1424,1425,0xbd4e12819d00f,,1,1 month ago
1425,1426,0x4a2088df692b9,Meatloaf_Galler,1,10 months ago
1426,1427,0xdecd4b961b198,mrcartographer.,1,2 months ago
1427,1428,0xb9682ee7c25be,,1,1 month ago
1428,1429,0x0b498454c8269,,1,
1429,1430,0x74806540d1429,,1,5 months ago
1430,1431,0x8a168dbfbf290,,1,
1431,1432,0x1abed56b27691,,1,1 month ago
1432,1433,0x8fe7b143b2c67,,1,
1433,1434,0x666dbb0fc8821,tanksecure.eth,1,
1434,1435,0x7c7d093b4fb96,m3mnoch,1,1 year ago
1435,1436,0x50b88f3f1ea89,lag.eth,1,5 months ago
1436,1437,0x7b640407513bc,,1,1 month ago
1437,1438,0x1f8dec5061b0d,,1,7 hours ago
1438,1439,0xf6a797e7472e4,,1,1 month ago
1439,1440,0x81c94a3339042,,1,
1440,1441,0xf64f0e46f5b19,,1,
1441,1442,0x0465f7dee00af,,1,4 months ago
1442,1443,0x5a6e40b29bf20,OpenNFT,1,10 days ago
1443,1444,0x1757d400578cf,,1,4 months ago
1444,1445,0xd037a13921d1c,,1,5 hours ago
1445,1446,0xf296178d553c8,,1,1 month ago
1446,1447,0xcc52d4132a0fd,longestview.eth,1,1 day ago
1447,1448,0xddcc629c76f31,necromancer.eth,1,2 months ago
1448,1449,0x06e13bd0a3cba,,1,
1449,1450,0x8f97c9ba31097,,1,
1450,1451,0xd52784d31f557,,1,
1451,1452,0x9373d1a7af2e6,,1,
1452,1453,0x66fca1a92a8c7,,1,1 month ago
1453,1454,0x37e8703b1a29b,,1,
1454,1455,0x9dd78c90b154a,thomascrown.eth,1,1 month ago
1455,1456,0xce4c8a44881d2,,1,
1456,1457,0x3b6ff5fcb4400,,1,7 months ago
1457,1458,0x060d19764de00,,1,7 months ago
1458,1459,0x3bacc073f78d8,,1,
1459,1460,0x5654967dc2c3f,,1,7 days ago
1460,1461,0xcf533a2aac4a3,,1,7 months ago
1461,1462,0x42f1f7015a8a8,,1,21 days ago
1462,1463,0x2f120efa7efdf,,1,1 year ago
1463,1464,0xf65e164f07e01,,1,9 months ago
1464,1465,0x828920ee37fcf,,1,1 month ago
1465,1466,0xe77e4d3db3cde,,1,
1466,1467,0x8eaeb4ef38c4d,,1,7 months ago
1467,1468,0x432dcbda06e8b,0xnigiri.eth,1,
1468,1469,0xba0b39c324c4e,,1,1 month ago
1469,1470,0x4fe5d0b4b663e,,1,7 months ago
1470,1471,0x6d315ba45f1a1,,1,6 days ago
1471,1472,0x55a0730a84472,,1,
1472,1473,0x7b343c896f856,,1,
1473,1474,0xf4ffd6faa6861,pg3124.eth,1,4 months ago
1474,1475,0xd8aec968404f4,,1,3 months ago
1475,1476,0x0a8025d44f749,,1,1 month ago
1476,1477,0x8779c4afaefb0,,1,4 days ago
1477,1478,0x2df2c9e26dba3,,1,16 days ago
1478,1479,0x899241b0c4105,wookie.eth,1,1 month ago
1479,1480,0x087f6883133b0,bunn.eth,1,12 days ago
1480,1481,0xf20dc15a36d4e,kunstkennerey.e,1,
1481,1482,0x19a0110537e49,,1,
1482,1483,0x69e1c391e6fa8,pumptruck.eth,1,29 days ago
1483,1484,0x4047eb64f5ca3,,1,20 days ago
1484,1485,0xc13149c4f6176,,1,5 hours ago
1485,1486,0xd44e9b676e74a,,1,4 days ago
1486,1487,0x19d5662227060,,1,26 days ago
1487,1488,0x0c192889c5a96,artartart,1,1 year ago
1488,1489,0x67775855d960f,,1,
1489,1490,0x297009f9ce654,,1,5 months ago
1490,1491,0xf1fcffba10de3,l3xc.eth,1,9 hours ago
1491,1492,0xb337ebb19121b,,1,29 days ago
1492,1493,0x0ecd8a50ce988,elir.eth,1,22 days ago
1493,1494,0xaaaac066a6965,,1,
1494,1495,0x46b2bd5c888e6,kenshiro.eth,1,5 months ago
1495,1496,0xbb5eb75a8ad51,,1,6 months ago
1496,1497,0xaa75b8c9e01ac,,1,20 days ago
1497,1498,0x55758f848b9f5,,1,6 months ago
1498,1499,0x91254a0a0febc,,1,25 days ago
1499,1500,0x22aa3f5d1daff,,1,1 month ago
1500,1501,0xc7fe19ec5e355,,1,15 days ago
1501,1502,0x54685c62db8e1,,1,17 days ago
1502,1503,0x1668c9725e27b,tomhschmidt.eth,1,
1503,1504,0xeafc83bd21070,lizelle.eth,1,
1504,1505,0x47b78acc6d294,,1,5 months ago
1505,1506,0xa290660029f33,,1,1 month ago
1506,1507,0x6be421a8eb9aa,tommysvault.eth,1,17 hours ago
1507,1508,0x4d31bd53dbda1,,1,
1508,1509,0x8262ec80a3327,ohl.eth,1,1 month ago
1509,1510,0x391a1f7eaf6b8,,1,1 month ago
1510,1511,0x04e6f051e5531,,1,23 days ago
1511,1512,0xfcc6bc9d3d5fc,bur0xvault.eth,1,15 days ago
1512,1513,0xd4718b9f52be0,,1,2 months ago
1513,1514,0x95fecf87fe6bd,,1,23 days ago
1514,1515,0x3d8680de4fbf1,,1,4 days ago
1515,1516,0x9a82d93ba5d1f,,1,
1516,1517,0xfaf20a6a1816e,,1,7 months ago
1517,1518,0x519ac7a522221,,1,
1518,1519,0xa528770f6021b,,1,25 days ago
1519,1520,0xbb322d8abff81,,1,5 months ago
1520,1521,0x476a9c42833e5,,1,
1521,1522,0xdd870a5f6c819,,1,
1522,1523,0x6b6675a2a5818,,1,6 days ago
1523,1524,0xd42fab871e708,,1,29 days ago
1524,1525,0x0ec629733c92a,,1,1 month ago
1525,1526,0xb9c29b3ef0cf7,tildencat.eth,1,7 months ago
1526,1527,0xfd03e252bc801,,1,4 days ago
1527,1528,0x03ff24ae9003d,,1,1 month ago
1528,1529,0x78ab747d6675a,sriramk.eth,1,1 month ago
1529,1530,0xe0e6a57fcef14,,1,
1530,1531,0x2536185849ee7,,1,1 month ago
1531,1532,0xaa11a1a8c71a8,,1,
1532,1533,0x077777f53544c,,1,6 months ago
1533,1534,0xcc0096c4e13ab,,1,1 month ago
1534,1535,0x7093f8979a945,,1,6 months ago
1535,1536,0x5b93ff82faaf2,Coopahtroopa,1,1 year ago
1536,1537,0xc69b462d6e06e,,1,
1537,1538,0xeb8140192ca8a,,1,1 month ago
1538,1539,0x000e8c608473d,,1,1 month ago
1539,1540,0x81ad691c7efbb,hamade.eth,1,4 days ago
1540,1541,0x59e1dc3ca4f51,,1,15 days ago
1541,1542,0x1b523dc90a79c,,1,1 month ago
1542,1543,0x38c6880a4b554,,1,1 month ago
1543,1544,0x713282ece7b1e,,1,1 month ago
1544,1545,0xa4df90e57987e,,1,
1545,1546,0xf748879edbe8c,cryptopunk4777.,1,1 month ago
1546,1547,0xda5b74ad80511,,1,
1547,1548,0xfba6476b6b967,,1,5 months ago
1548,1549,0x996290c17c874,,1,8 months ago
1549,1550,0xcb2e10a47da99,,1,13 days ago
1550,1551,0x4127143a866bf,maxether.eth,1,
1551,1552,0xf8196c206634b,,1,26 days ago
1552,1553,0xd16b147f126ba,,1,1 month ago
1553,1554,0xa3280e03637a8,,1,4 days ago
1554,1555,0xe6030d4e77388,,1,
1555,1556,0x182347c3a7b5a,,1,4 days ago
1556,1557,0x2f67149d76ffc,,1,8 days ago
1557,1558,0xc31afe50abc2f,,1,1 month ago
1558,1559,0xa38cdb63c943e,,1,3 days ago
1559,1560,0x2859014bd9a59,,1,1 month ago
1560,1561,0xc5f5970997426,farokh.eth,1,1 month ago
1561,1562,0xc1bdab49e94da,,1,1 month ago
1562,1563,0xb23fb4ca613ef,,1,6 months ago
1563,1564,0xd5485a2eb4595,,1,
1564,1565,0x88063f189e8f8,,1,1 month ago
1565,1566,0xa83fa9c834bb5,,1,1 month ago
1566,1567,0x07adbafdd3a90,,1,7 months ago
1567,1568,0xe7a806e88f6c8,,1,4 months ago
1568,1569,0x8cb33d13e9270,,1,7 months ago
1569,1570,0x8abfcaa233ff4,,1,8 months ago
1570,1571,0x576b410d17d0c,onemandao.eth,1,1 month ago
1571,1572,0x5711a82469d8a,,1,2 days ago
1572,1573,0x297289405faf3,,1,1 month ago
1573,1574,0xa31cdc990c1f9,,1,3 days ago
1574,1575,0xe0c60af5b9946,,1,4 days ago
1575,1576,0xf531c7a28a349,,1,14 days ago
1576,1577,0x4f3cf061c01a0,2639.eth,1,20 days ago
1577,1578,0xdc5b961a5ab04,,1,1 month ago
1578,1579,0xca11d10ceb098,,1,8 months ago
1579,1580,0x7ccd2ee72a75f,deafbeef.eth,1,1 month ago
1580,1581,0xd76040b01fa18,proper.eth,1,4 months ago
1581,1582,0xb79157bca1635,,1,6 months ago
1582,1583,0xbc0cfa08b8c5e,,1,1 month ago
1583,1584,0x4223e128a023a,,1,1 month ago
1584,1585,0x6f54c650190b4,0xv0ult.eth,1,
1585,1586,0x811dfeab25fea,,1,27 days ago
1586,1587,0xc6f6c89f7f297,,1,3 months ago
1587,1588,0x1acc962454c4e,,1,1 month ago
1588,1589,0x6f6ab434adabd,,1,4 days ago
1589,1590,0x766bc61d31502,,1,28 days ago
1590,1591,0xc2bb6c36f36f1,,1,2 months ago
1591,1592,0xe64777dcdca11,,1,2 months ago
1592,1593,0x123754aae1b68,,1,
1593,1594,0xb63c134c46234,,1,1 month ago
1594,1595,0x171f44a479cf3,,1,1 year ago
1595,1596,0x14839fc66a273,,1,
1596,1597,0xe1b048f4af9cf,,1,15 days ago
1597,1598,0x4f764a08c6625,funghibull.eth,1,2 months ago
1598,1599,0xdf02cf4bb3ffb,,1,12 days ago
1599,1600,0x42de10a720c59,izebel.eth,1,1 month ago
1600,1601,0x0cca26291a325,,1,1 month ago
1601,1602,0x6ed1a5b3f6286,,1,29 days ago
1602,1603,0xc659284cd530f,coinwitch.eth,1,1 month ago
1603,1604,0x9312843c7c10f,,1,28 days ago
1604,1605,0x34805e6a3796f,palis.eth,1,1 month ago
1605,1606,0xeb6599cc96817,,1,1 month ago
1606,1607,0x00df0a54fb57b,,1,2 months ago
1607,1608,0x24f270bdf0eeb,,1,5 months ago
1608,1609,0x0000000000000,,1,
1609,1610,0xffffc32855b26,paranew2.eth,1,2 months ago
1610,1611,0x834bd42d09717,freeport.eth,1,7 months ago
1611,1612,0x4665591f58492,,1,5 days ago
1612,1613,0xfdf3c690e28c6,,1,1 month ago
1613,1614,0x87d3ee8cc75c3,,1,29 days ago
1614,1615,0x812e5daee95a0,,1,1 month ago
1615,1616,0xe773dac5def17,,1,5 days ago
1616,1617,0xfae6ff6a67f7a,,1,1 month ago
1617,1618,0x8397e2d5fadaa,mrmeta.eth,1,
1618,1619,0x027cae2ed1a23,plox.eth,1,1 month ago
1619,1620,0xdb75ae62eec74,nod.eth,1,2 months ago
1620,1621,0xac0564bafdc13,,1,
1621,1622,0x26141f4a62f49,ph1l.eth,1,
1622,1623,0xd6dd6961d3224,purplehat.eth,1,2 months ago
1623,1624,0x068b65394ebb0,,1,1 month ago
1624,1625,0xda44e1c6addf1,,1,7 months ago
1625,1626,0x092cff73c77a9,rallsen.eth,1,
1626,1627,0x2b0386bbdd314,,1,7 months ago
1627,1628,0x4c343ec99711e,,1,
1628,1629,0x0e81eaf2e7224,,1,
1629,1630,0x0a7245fa92fc4,,1,23 days ago
1630,1631,0xfb9a278919af2,,1,1 month ago
1631,1632,0x0654ef514655e,,1,4 months ago
1632,1633,0x04ede46c36e13,,1,28 days ago
1633,1634,0x16bd68b91396a,,1,1 month ago
1634,1635,0x606cca7f81b53,,1,3 days ago
1635,1636,0x44b963cc2ebe6,,1,
1636,1637,0xfde4a6c95020b,mcgorgeous.eth,1,2 days ago
1637,1638,0x96c57241cac6a,,1,8 days ago
1638,1639,0x03804baf09aab,,1,24 days ago
1639,1640,0x21c83917fe726,,1,
1640,1641,0x290b4ec8345c3,,1,14 days ago
1641,1642,0x10ab9336c3bb0,,1,3 days ago
1642,1643,0xa4d0add0058d2,,1,4 days ago
1643,1644,0xac4109a00af7d,,1,2 months ago
1644,1645,0xf3cad40f7f7b4,,1,2 months ago
1645,1646,0x3d40e3751df13,,1,1 month ago
1646,1647,0xbe6e23ba37ba1,,1,1 month ago
1647,1648,0x1b7fcc22d66f1,,1,
1648,1649,0xbd17e0c2d7ab5,,1,5 months ago
1649,1650,0xa5eae3eacf95a,dwun.eth,1,28 days ago
1650,1651,0x6e8f26d35800e,apostolos.eth,1,4 months ago
1651,1652,0xbe63776fe7477,,1,6 months ago
1652,1653,0xad3b508d912be,,1,1 month ago
1653,1654,0x60ea59c40efc5,,1,
1654,1655,0x45fe0cc37598b,,1,20 days ago
1655,1656,0x60cd04af65580,,1,4 months ago
1656,1657,0x573555dc420c8,,1,
1657,1658,0xc4c1fa20a612f,,1,
1658,1659,0xb9ccea572a82d,,1,1 month ago
1659,1660,0x5670ae79dc066,,1,
1660,1661,0xdf934780e40d9,,1,14 days ago
1661,1662,0x76ce9bbe27890,,1,
1662,1663,0x00493aa44bcfd,kirinparadise.e,1,2 months ago
1663,1664,0xe487ed5ec80cc,jke.eth,1,
1664,1665,0xd6d6869333c5c,,1,21 days ago
1665,1666,0xeca9c66692bb0,gen0xvault.eth,1,1 month ago
1666,1667,0x5a483c063b6b2,MattKaneArtist,1,5 months ago
1667,1668,0x1109297e392d9,,1,1 month ago
1668,1669,0x4e335bfda2545,,1,1 month ago
1669,1670,0xfdbd7c5adfe4f,,1,1 month ago
1670,1671,0x41bf572ad1173,takesprofits.et,1,4 months ago
1671,1672,0x095a7d9f3c901,themariokarters,1,3 months ago
1672,1673,0xfdcd64b5ba061,,1,29 days ago
1673,1674,0x7bf1829323401,omarlittle.eth,1,1 month ago
1674,1675,0xd7029bdea1c17,,1,2 months ago
1675,1676,0x444d70a6caeef,,1,
1676,1677,0x6865d96e9aa5a,,1,3 months ago
1677,1678,0xb02492d6eda91,,1,12 days ago
1678,1679,0x161dba94784e8,fenomeno.eth,1,1 day ago
1679,1680,0xfcc6110a2eeab,,1,
1680,1681,0x653d63e4f2d71,jpgs.eth,1,1 month ago
1681,1682,0x073e9bf572f87,,1,1 month ago
1682,1683,0xff95c307253ee,krainak.eth,1,14 days ago
1683,1684,0x3280f84f5eaa0,bewd.eth,1,1 month ago
1684,1685,0x7d85806c589d9,,1,6 months ago
1685,1686,0x90b2e9aeace19,,1,1 month ago
1686,1687,0x25b6062593849,,1,7 months ago
1687,1688,0x5a8681ca9efdd,ObiWanKenobi,1,7 months ago
1688,1689,0x5d843c34ff45d,,1,1 month ago
1689,1690,0xf6651185a3737,,1,3 days ago
1690,1691,0x5ad27c3928794,,1,6 months ago
1691,1692,0xc69ae428f6049,,1,12 days ago
1692,1693,0xa7d68854ad617,Avocuddle,1,1 year ago
1693,1694,0x7fd6c3844264c,,1,1 month ago
1694,1695,0xdc925a32a5f01,,1,3 years ago
1695,1696,0x5d8bff9300b69,jaindl.eth,1,1 month ago
1696,1697,0x8363b3c46c057,spr3adsh33t.eth,1,7 months ago
1697,1698,0x1178463f80965,simmerdown.eth,1,
1698,1699,0xfea037b0b5edc,nessgraphicsvau,1,
1699,1700,0x310cad6a47e31,,1,
1700,1701,0x8e8f16c4aa9cf,,1,29 days ago
1701,1702,0xeee59d723433a,,1,1 day ago
1702,1703,0x27366708f5339,,1,1 month ago
1703,1704,0xee433c8acefaf,,1,11 minutes ago
1704,1705,0xdcaf84e17bb06,thatsmy.eth,1,1 month ago
1705,1706,0xa4d07c23f28a1,,1,3 days ago
1706,1707,0x5ccaec29c9d3f,,1,5 months ago
1707,1708,0x155a922d61ca2,,1,29 days ago
1708,1709,0x52d9651183a3a,,1,1 month ago
1709,1710,0x57a1290bb8346,,1,3 days ago
1710,1711,0x8c6af0a77b37d,,1,2 months ago
1711,1712,0xa7ad4296d9f41,,1,
1712,1713,0xa1a6f79bfc843,,1,
1713,1714,0xa477803db91cb,,1,1 month ago
1714,1715,0x7b1d4f3602f0f,MBK,1,4 days ago
1715,1716,0xce8a86fc6235e,,1,
1716,1717,0xcd685e5bb9060,tweed.eth,1,3 months ago
1717,1718,0xae21e35267926,,1,1 month ago
1718,1719,0xba7529cb9d618,,1,1 day ago
1719,1720,0x30e474d8bf65c,,1,22 hours ago
1720,1721,0xd5bc6960cae38,,1,1 month ago
1721,1722,0x898f647797a88,,1,6 months ago
1722,1723,0x8da24b4806893,msizz.eth,1,29 days ago
1723,1724,0xf49beb85fc09c,,1,4 days ago
1724,1725,0xab4ead4014c3e,onevault.eth,1,
1725,1726,0x446dcdfa78d07,2381.eth,1,12 days ago
1726,1727,0x95ef2f204d7ea,,1,1 month ago
1727,1728,0xd7a7ff2cfab5b,eojjim.eth,1,1 month ago
1728,1729,0xd3b4a507c9967,,1,6 months ago
1729,1730,0xa0dac4ac9bdb6,,1,
1730,1731,0xefdfa06f9c876,,1,1 day ago
1731,1732,0x79cfb3df47ddd,,1,
1732,1733,0x07cc65ec4de72,,1,2 months ago
1733,1734,0x60c728d2a606d,,1,13 days ago
1734,1735,0x56b598cf170b0,hewerclan.eth,1,29 days ago
1735,1736,0x4909cae17fd92,,1,
1736,1737,0x7e99611cf208c,fumbledthebag.e,1,24 days ago
1737,1738,0x25f51d4349159,,1,
1738,1739,0x6ea4539872bc2,,1,1 month ago
1739,1740,0x695f0ae101997,,1,8 days ago
1740,1741,0xd0f5436fc7b24,,1,1 month ago
1741,1742,0x5080b717e5ed2,,1,1 month ago
1742,1743,0x84248ba6fdaf9,,1,2 months ago
1743,1744,0x86286d93d79a9,,1,
1744,1745,0x7f100da830295,,1,4 months ago
1745,1746,0xd8d908959b0fd,Juanito,1,1 month ago
1746,1747,0x623fc4f577926,artifacts.eth,1,4 months ago
1747,1748,0xdd23abb2227b4,,1,26 days ago
1748,1749,0x46788c4245ea7,clowntown.eth,1,1 month ago
1749,1750,0xe4183c76b4853,itsallrisky.eth,1,
1750,1751,0x40bad2abaadfa,morphy.eth,1,2 months ago
1751,1752,0x1fbbdc5f597ab,,1,
1752,1753,0x665654f2d2a15,,1,
1753,1754,0x38191ca1307eb,,1,
1754,1755,0xa9995648fcac5,,1,
1755,1756,0x09dc1450271fc,,1,
1756,1757,0x3ede8326c00aa,,1,3 months ago
1757,1758,0xee6ccbc9d83a9,,1,
1758,1759,0x37f3111e5b5f9,,1,3 days ago
1759,1760,0x3088a1384b6c1,,1,
1760,1761,0x5129b872eade3,,1,3 months ago
1761,1762,0xddfb6f80b3c06,,1,
1762,1763,0x74dc3d7e4a813,,1,1 month ago
1763,1764,0x8e6ebf8bdca93,kakis.eth,1,
1764,1765,0x488e98bb77a67,,1,5 months ago
1765,1766,0xc2e13041b5109,flexing.eth,1,
1766,1767,0x11e4857bb9993,hayden.eth,1,1 month ago
1767,1768,0x0780379fd0a4d,,1,
1768,1769,0x37eb49074b9c7,,1,
1769,1770,0x983f0cbb4815f,flowerpot.eth,1,1 month ago
1770,1771,0xfd71c1376db44,,1,1 day ago
1771,1772,0x0a883616ff6ba,,1,7 months ago
1772,1773,0xf598aadf12a2f,fastackl.eth,1,19 days ago
1773,1774,0xf8a4f66210bc9,,1,8 months ago
1774,1775,0x998e2d4bc77e0,,1,
1775,1776,0x3ee18f6052b1d,,1,4 months ago
1776,1777,0x6dbdc8bd19ca8,heshi.eth,1,2 days ago
1777,1778,0x69dec24d8f10f,,1,1 month ago
1778,1779,0x9286196572423,,1,14 days ago
1779,1780,0x809e7b210f8c5,,1,4 months ago
1780,1781,0x87c926b07162b,,1,24 days ago
1781,1782,0xfcd457b27ee14,,1,1 month ago
1782,1783,0xe5625a6ee4908,,1,7 months ago
1783,1784,0xcbadec3966a8f,,1,29 days ago
1784,1785,0x0297c8d39bb7c,,1,1 month ago
1785,1786,0x5419623840030,,1,2 months ago
1786,1787,0x191458d229eaf,,1,8 months ago
1787,1788,0x5bc79d9084b79,,1,6 months ago
1788,1789,0x06e63138f3241,,1,13 days ago
1789,1790,0xfce761b176cf3,wwy.eth,1,3 months ago
1790,1791,0x5330be5c529cd,,1,1 month ago
1791,1792,0xb205be13e3f9f,,1,1 month ago
1792,1793,0xe2d712e5da20b,baronesscrypto.,1,1 month ago
1793,1794,0xad9f11d1dd6d2,zerog.eth,1,2 months ago
1794,1795,0x8d3caf6b86300,davidiach.eth,1,1 month ago
1795,1796,0x2e7296ebc57fc,henryelder.eth,1,1 month ago
1796,1797,0xedd88ca63d7c0,,1,1 month ago
1797,1798,0x20d5a37486b4f,,1,26 days ago
1798,1799,0xfd127b082d270,,1,6 months ago
1799,1800,0x60311403a64e4,,1,
1800,1801,0x7b8961f67382c,,1,28 days ago
1801,1802,0x554e0b456a388,,1,
1802,1803,0x2d891ed45c4c3,bnolan,1,2 years ago
1803,1804,0x8c2e67bd3d0f4,borgetsebastien,1,
1804,1805,0x0864224f3cc57,,1,
1805,1806,0xad4f9e51cb88e,,1,11 months ago
1806,1807,0xbf370b6e9d97d,,1,3 months ago
1807,1808,0x46bc2a8d011e2,,1,1 month ago
1808,1809,0x64e00561fa9b1,,1,1 month ago
1809,1810,0xc96de7ba760c8,,1,11 days ago
1810,1811,0x0f18c529b5185,,1,
1811,1812,0xba304e6d2bbb7,,1,25 days ago
1812,1813,0xaa1d4a0859d9e,,1,1 month ago
1813,1814,0xc9f5654e2f1bd,libraobab,1,1 month ago
1814,1815,0x996666de859b2,rmr.eth,1,1 month ago
1815,1816,0x6a397459bc9f3,,1,6 months ago
1816,1817,0x9224bbb4e0fbe,,1,7 months ago
1817,1818,0x3fae7d59a2455,honeysuckle.eth,1,1 month ago
1818,1819,0x672a04e11366c,,1,17 days ago
1819,1820,0x69f0687e1b859,dexer.eth,1,2 months ago
1820,1821,0xfe155fbed8eeb,alee.eth,1,2 days ago
1821,1822,0x67ff0cf40c759,,1,1 month ago
1822,1823,0x6e3aa85db95bb,baikonur.eth,1,1 month ago
1823,1824,0x0000000000000,,1,
1824,1825,0x58455ce173812,,1,
1825,1826,0xb6327093558b8,,1,8 months ago
1826,1827,0x82637d3bd84f5,docblock,1,4 days ago
1827,1828,0xfef1697cfa1a6,,1,3 months ago
1828,1829,0xf5663d0eee362,,1,7 months ago
1829,1830,0x5ac7983a4faaf,,1,
1830,1831,0x26439aeb008d6,zico,1,1 month ago
1831,1832,0x20744fbf4085f,,1,
1832,1833,0x402ad5b9fee0e,,1,7 months ago
1833,1834,0xabc7eba2d69eb,nikkor.eth,1,25 days ago
1834,1835,0x2bcdb960250e2,,1,1 day ago
1835,1836,0xc7463a4ac3ed8,,1,3 days ago
1836,1837,0xa523da93344dd,,1,12 days ago
1837,1838,0xb2f4b16595e02,Kinchasa,1,1 month ago
1838,1839,0xb02365dc1a28d,cortexjess.eth,1,
1839,1840,0xfe3a899e0de97,,1,1 month ago
1840,1841,0xbdc7897fc274a,,1,1 month ago
1841,1842,0x8c4a6242c0027,,1,1 month ago
1842,1843,0x445c770bfc3cd,diorpapi.eth,1,1 day ago
1843,1844,0xa3c277b8f3588,,1,1 month ago
1844,1845,0x58575ce2cd6bc,stickvault.eth,1,
1845,1846,0xba178ae12daa7,Gilzar,1,10 months ago
1846,1847,0xd0fee4ccd4cd8,,1,6 months ago
1847,1848,0xfc11f9d668f29,,1,8 months ago
1848,1849,0x0d5387a3ee246,nicholasbaker.e,1,1 month ago
1849,1850,0x001da99a3554b,Bendicion,1,8 months ago
1850,1851,0x4b4f579d1cd60,,1,12 days ago
1851,1852,0x70580c270a51b,yumbit.eth,1,12 days ago
1852,1853,0x7c901d78ba68b,,1,
1853,1854,0x4edaa8c329f1f,,1,1 month ago
1854,1855,0xe28470253f0c9,,1,
1855,1856,0x4661e5bf14c23,,1,5 months ago
1856,1857,0x5cf8574c6a0ee,knifefight.eth,1,7 months ago
1857,1858,0x7e2d1cad77532,,1,11 months ago
1858,1859,0xb277e254258bd,,1,5 months ago
1859,1860,0x7a8d8f4b5c05e,,1,1 month ago
1860,1861,0x60d25d3428bff,,1,1 month ago
1861,1862,0x49432b32f2648,,1,6 months ago
1862,1863,0x00653d03b147a,,1,4 months ago
1863,1864,0x299eae71c3ad6,,1,1 month ago
1864,1865,0x011554ec8d2c4,,1,1 month ago
1865,1866,0x58d58008a506d,,1,2 months ago
1866,1867,0x6bd662f8b7258,,1,
1867,1868,0xf21e5f7b79fdc,,1,3 years ago
1868,1869,0x906e55e1035c8,,1,5 months ago
1869,1870,0xec6d36a487d85,Shrugs,1,20 days ago
1870,1871,0xbfa319ef5529b,,1,5 months ago
1871,1872,0xb733e52dff6d0,vault.davecorp.,1,1 month ago
1872,1873,0xf6c2332e99df2,,1,
1873,1874,0xfb5625ad85fce,,1,6 months ago
1874,1875,0x890dbc463f22c,,1,7 months ago
1875,1876,0x1c699fa558735,,1,7 months ago
1876,1877,0x0056af3a28893,,1,1 month ago
1877,1878,0x4ef1ab9a3330c,,1,3 years ago
1878,1879,0x0a645cbbfd479,,1,3 years ago
1879,1880,0x92cfdceeb276a,hoboz.eth,1,1 month ago
1880,1881,0xafd37c11f9dfe,pixelpetevault.,1,1 month ago
1881,1882,0x00a839de79224,ralxz,1,1 year ago
1882,1883,0xcf0ee1f9ebb63,,1,1 month ago
1883,1884,0xf7b33567153e2,,1,3 years ago
1884,1885,0x7fb715b3b623e,,1,5 months ago
1885,1886,0x76ee90e1ec74a,,1,29 days ago
1886,1887,0x10f16811b18aa,,1,18 days ago
1887,1888,0x0735b34a9eb4d,,1,4 months ago
1888,1889,0x54372e2b338c4,leonli.eth,1,1 day ago
1889,1890,0x1b63142628311,tgerring.eth,1,2 months ago
1890,1891,0x42e14873e4ad7,,1,7 months ago
1891,1892,0x93f27b8719aba,,1,2 days ago
1892,1893,0x8ae57a027c63f,,1,13 days ago
1893,1894,0x28c89718f4dab,,1,4 years ago
1894,1895,0x9a9358fe6aff4,,1,1 month ago
1895,1896,0x6d3568d0515a0,sushiape.eth,1,1 month ago
1896,1897,0x81590c16b9d14,jitterypixels.e,1,1 month ago
1897,1898,0x0b88fd8788408,,1,1 month ago
1898,1899,0x51734e5211c3e,themetavault.et,1,
1899,1900,0x6afd3f33ad6e0,,1,
1900,1901,0x4899410edb370,Gratitude,1,1 month ago
1901,1902,0x337101def3eeb,,1,7 months ago
1902,1903,0xa64fc17b157aa,CBobRobison,1,3 years ago
1903,1904,0xfb85fff7b47cc,,1,3 years ago
1904,1905,0x7b4f0c7a4ad69,,1,
1905,1906,0x91caab3c0e911,,1,1 month ago
1906,1907,0xac4bb350e235e,,1,29 days ago
1907,1908,0x6d9194353c6a5,,1,
1908,1909,0x53e9bd8a795a2,,1,3 years ago
1909,1910,0x51d5aa7a076c0,,1,1 month ago
1910,1911,0xc4ed5dcd49908,yupyupyup,1,3 years ago
1911,1912,0x2a48b96478611,,1,1 month ago
1912,1913,0x621f2a5ef987e,,1,5 months ago
1913,1914,0xa636e1a462f61,,1,3 years ago
1914,1915,0x75863c5dd30fc,asthealexflies.,1,5 months ago
1915,1916,0xf163df709d8f5,,1,6 months ago
1916,1917,0x6853a596d6d72,zaphodok,1,3 years ago
1917,1918,0x56d90629aa298,biotic.eth,1,24 days ago
1918,1919,0xad0bccb7fa9a1,,1,1 month ago
1919,1920,0x90c19fea1ef7b,rssi.eth,1,1 month ago
1920,1921,0xf3d56b1e655a4,,1,3 years ago
1921,1922,0x50c4e8fd53d5f,,1,7 days ago
1922,1923,0x77ce19a2c22fa,,1,
1923,1924,0x6fe7310f81b66,,1,7 months ago
1924,1925,0xc0d92f633ee8c,,1,5 days ago
1925,1926,0xc9f203b4692c0,,1,5 months ago
1926,1927,0xe5dfd20d05639,,1,28 days ago
1927,1928,0x3950cf9d61851,ryanduffy.eth,1,1 month ago
1928,1929,0x2fd68d957f64e,,1,3 days ago
1929,1930,0x530cf036ed4fa,dan_,1,1 year ago
1930,1931,0xe9e9b34920131,,1,3 years ago
1931,1932,0x6dabf8d750c2c,,1,1 month ago
1932,1933,0x6be450972b308,0x6be450972b308,1,3 years ago
1933,1934,0xf1db8a2623193,Fanny,1,7 months ago
1934,1935,0xd9d8a53c75c3f,,1,22 days ago
1935,1936,0x4b17bb0d1f756,,1,1 month ago
1936,1937,0x03fbbfe27fae9,,1,3 years ago
1937,1938,0x3d9456ad6463a,jmann.eth,1,3 years ago
1938,1939,0xc72a7a1587895,,1,3 years ago
1939,1940,0xf6852df0c0a18,,1,2 months ago
1940,1941,0xf13a47ea0ef4d,,1,21 days ago
1941,1942,0x1847570ad2fe1,,1,
1942,1943,0x694a0cf945ae8,,1,1 month ago
1943,1944,0xeeaddc58cbf06,,1,1 month ago
1944,1945,0xa685291af7b25,,1,25 days ago
1945,1946,0x89c5dca00b9bf,WangXiang,1,2 years ago
1946,1947,0x8376c688003a2,,1,14 days ago
1947,1948,0xa044ec5c5189d,,1,13 days ago
1948,1949,0xbce3e29641b20,,1,3 years ago
1949,1950,0x9406577195056,,1,10 days ago
1950,1951,0xfacef700458d4,penguin,1,10 months ago
1951,1952,0xc52641d393c78,,1,3 years ago
1952,1953,0xaad9cbde2bd63,,1,2 months ago
1953,1954,0x37ad75d01f35a,,1,4 months ago
1954,1955,0xcea58d938f353,,1,3 years ago
1955,1956,0xd28bfaea8c886,oeon.eth,1,2 months ago
1956,1957,0xc18c200a0949f,,1,1 month ago
1957,1958,0xd11c2a4042c18,,1,3 years ago
1958,1959,0x41497f8b5f707,,1,1 month ago
1959,1960,0xa1712fc331a5d,,1,5 months ago
1960,1961,0x77f713b00ca5f,,1,3 years ago
1961,1962,0xce3ecc2d77bd6,,1,1 month ago
1962,1963,0x2e9cb2534f224,marcbpunk.eth,1,2 months ago
1963,1964,0x7e5b399e25466,,1,1 month ago
1964,1965,0x821372752c0a7,,1,12 days ago
1965,1966,0x52f9a67fd05ad,peng.eth,1,1 month ago
1966,1967,0x8b27de7f6a754,,1,1 month ago
1967,1968,0x9113d4142de0f,,1,1 day ago
1968,1969,0xb0f96a681e2e1,,1,11 days ago
1969,1970,0x3aafabec90ab6,kevinc.eth,1,26 days ago
1970,1971,0x6dfc99cdefd0f,,1,5 months ago
1971,1972,0xa2efa94766ee8,,1,3 months ago
1972,1973,0xb4a8bf692110a,,1,26 days ago
1973,1974,0x0d8040392a83e,,1,4 years ago
1974,1975,0x8ad68e2c67b88,,1,4 years ago
1975,1976,0x342522ae61de2,macomoroni.eth,1,
1976,1977,0x7132c9f36abe6,infernaltoast.e,1,1 month ago
1977,1978,0x48587ea9e20d2,,1,3 years ago
1978,1979,0x12dc0561e618f,,1,5 months ago
1979,1980,0x554e3b78364ba,Ur84NKriptoN,1,1 month ago
1980,1981,0x18f4f933f8773,,1,4 years ago
1981,1982,0x15396ccbcf993,,1,7 months ago
1982,1983,0xa05758edcefee,,1,
1983,1984,0x6ea073f4de9cd,,1,4 years ago
1984,1985,0xa9e2afb1fae54,,1,1 month ago
1985,1986,0x7b8b8a1ecb4ee,,1,24 days ago
1986,1987,0x75760abb406df,,1,5 days ago
1987,1988,0x2eb5162af8e14,,1,2 days ago
1988,1989,0x06c1a3b6d3d47,0xyeti.eth,1,1 month ago
1989,1990,0xedc9c1c41548c,,1,4 years ago
1990,1991,0x7b220358c3ec9,,1,1 month ago
1991,1992,0xccf2075c74de2,,1,8 days ago
1992,1993,0xfe407097e296c,,1,1 month ago
1993,1994,0x751832d7bb5e5,,1,3 years ago
1994,1995,0x6a2840a37e5b1,,1,1 month ago
1995,1996,0xbfc586a34128d,,1,3 years ago
1996,1997,0xa02d922d569f3,,1,7 months ago
1997,1998,0x6d5f1fc2799d2,,1,1 month ago
1998,1999,0xc5e38233cc0d7,kaigani.eth,1,
1999,2000,0x6cc1483036b86,,1,3 years ago
2000,2001,0xadb3a2c73f331,,1,3 years ago
2001,2002,0x1fb9f85fb060c,,1,3 years ago
2002,2003,0x9ee0fa1ab8c1e,,1,1 month ago
2003,2004,0x536fb9b510e7e,,1,3 years ago
2004,2005,0x670d7542947f0,,1,1 month ago
2005,2006,0x57a14e3b9b8d9,,1,
2006,2007,0x147a3aaa88c45,,1,3 years ago
2007,2008,0x4564d4b31de74,,1,3 months ago
2008,2009,0x0a383e69f43bd,punk9999.eth,1,4 years ago
2009,2010,0x06dc1e279bd44,,1,3 days ago
2010,2011,0x3f390a0fe4fe9,,1,4 years ago
2011,2012,0x66c95124035c8,,1,5 months ago
2012,2013,0xa8d04cd4e1951,,1,1 month ago
2013,2014,0x1e815a8188f1b,digitaloil.eth,1,1 month ago
2014,2015,0x12945660aaab3,,1,4 years ago
2015,2016,0x2e336836cf036,,1,
2016,2017,0xeb6cf828acada,,1,1 month ago
2017,2018,0x355f9ded3c275,,1,6 months ago
2018,2019,0x9357e4f9acd15,json.eth,1,1 month ago
2019,2020,0xfad116147b061,,1,23 days ago
2020,2021,0x5bf18d616dcd8,,1,
2021,2022,0x9b49c839bc165,,1,4 months ago
2022,2023,0x3fb53766072d6,,1,1 month ago
2023,2024,0xd9d9d578d2027,,1,
2024,2025,0xc0b7baddb0631,,1,
2025,2026,0xf23e00eca9b46,,1,8 days ago
2026,2027,0x443b1a8ed01a5,,1,3 years ago
2027,2028,0x1c2581e734a8b,Ravachol,1,4 months ago
2028,2029,0xe6faaa1ed9aa9,hyogi.eth,1,5 days ago
2029,2030,0xa2ba04f43ca44,,1,
2030,2031,0xcc778603d10bd,,1,1 month ago
2031,2032,0xa2d5f9a91128e,,1,1 day ago
2032,2033,0xab7244011d76f,,1,11 days ago
2033,2034,0x861e24696c8fc,,1,
2034,2035,0x44a3ccddccae3,markydao.eth,1,1 month ago
2035,2036,0x40dceaf803096,,1,4 years ago
2036,2037,0x4c4a5490deefe,,1,5 months ago
2037,2038,0x59900b86e14e0,,1,4 years ago
2038,2039,0x78b5990ec3f97,,1,4 years ago
2039,2040,0xe1d29d0a39962,keyboardmonkey3,1,40 minutes ago
2040,2041,0x9aad504d2ecf1,,1,2 months ago
2041,2042,0x9eecb70a1fcde,,1,4 years ago
2042,2043,0x4baa94377f223,,1,9 days ago
2043,2044,0x4ceb8dc70813f,ssteiger.eth,1,4 months ago
2044,2045,0x2014ae8b1d21f,,1,2 months ago
2045,2046,0x028229241a160,,1,4 years ago
2046,2047,0x91dccaa260cc4,beautifulkongz.,1,1 month ago
2047,2048,0x00fef499b2624,,1,4 years ago
2048,2049,0x60ba32493ba39,,1,
2049,2050,0xe8b15352c8b5b,,1,1 day ago
2050,2051,0x3d00aea893906,,1,4 years ago
2051,2052,0x86b896452bbdd,,1,24 days ago
2052,2053,0x9402ffb49f6bd,,1,13 days ago
2053,2054,0x1c521d0f6da50,,1,29 days ago
2054,2055,0x413804bb25453,,1,
2055,2056,0xac344fe188b60,,1,4 years ago
2056,2057,0xc45532c436458,,1,26 days ago
2057,2058,0xd8cb7c4da7146,,1,4 years ago
2058,2059,0xf0dcd8c64eb82,,1,4 years ago
2059,2060,0x4d697e4dc1a3f,,1,
2060,2061,0xdb9f8b13550b4,,1,4 years ago
2061,2062,0x479299dd33b76,,1,
2062,2063,0xcf6556c11c686,,1,1 month ago
2063,2064,0x478b15500d29b,canarycollectio,1,
2064,2065,0x592234c63ac3c,2106.eth,1,6 months ago
2065,2066,0x82f2c3e8f473b,,1,
2066,2067,0x679220ef8b751,,1,4 years ago
2067,2068,0x7ba6527419152,,1,1 month ago
2068,2069,0x1f2bcd78b9f4e,,1,4 years ago
2069,2070,0x07c2af7578881,leishen.eth,1,29 days ago
2070,2071,0x24582fd3ab36e,,1,4 years ago
2071,2072,0x9d9df4b809f31,,1,4 years ago
2072,2073,0x344edae9362e1,,1,5 months ago
2073,2074,0x009a6191f45a5,,1,4 years ago
2074,2075,0x051e08a6407e6,omri.eth,1,
2075,2076,0x1ff60e72c816c,,1,4 years ago
2076,2077,0x60fe3e0e5468a,,1,1 month ago
2077,2078,0x6f674abad03b7,,1,
2078,2079,0xc97fdd816fcaa,,1,20 days ago
2079,2080,0x6f7001383b8cd,,1,4 years ago
2080,2081,0x518ae9dc06af3,,1,29 days ago
2081,2082,0x000003e1e88a1,,1,1 month ago
2082,2083,0x40093628f8347,,1,4 years ago
2083,2084,0xaa8ff8318e074,,1,
2084,2085,0x689ad2055dc45,,1,4 years ago
2085,2086,0x26dee656e7d76,,1,1 month ago
2086,2087,0x680c8b7893fa2,,1,4 years ago
2087,2088,0x4dc133d9cb9c0,,1,4 years ago
2088,2089,0x76997945810dc,,1,4 years ago
2089,2090,0xcb8475a4f2347,,1,
2090,2091,0x809a31ce59528,,1,4 years ago
2091,2092,0x5bb4fffef211f,,1,29 days ago
2092,2093,0xad35308a98a8e,,1,4 years ago
2093,2094,0x8883b11c7cc85,,1,4 years ago
2094,2095,0xabf16c8103717,payam.eth,1,10 days ago
2095,2096,0x88822756ec33b,,1,4 years ago
2096,2097,0x0f08f5cf09054,,1,
2097,2098,0xe29662a5b0a9e,,1,4 years ago
2098,2099,0x8d8100705fb66,,1,1 month ago
2099,2100,0xd2b8c7bb221f2,,1,1 month ago
2100,2101,0x0ae57280978ae,,1,15 hours ago
2101,2102,0x82410609593d8,cypherdao道.eth,1,
2102,2103,0xa58ea377e85ae,,1,4 years ago
2103,2104,0xa05c74d915f5d,,1,4 years ago
2104,2105,0x0f19b85adb3d3,,1,4 years ago
2105,2106,0x5d9eed5a6b5f7,,1,
2106,2107,0x4128f4617209c,,1,
2107,2108,0x5c79d3d994b54,,1,4 years ago
2108,2109,0xaf4e597f6557b,,1,
2109,2110,0x5eb2ac0a96b20,,1,4 years ago
2110,2111,0xe22c0051b9205,,1,29 days ago
2111,2112,0x3aeabbea800d8,,1,5 months ago
2112,2113,0xda0396c581d42,faxmonkey,1,8 months ago
2113,2114,0x62218c482cabf,,1,27 days ago
2114,2115,0x9e4a9b4334f31,jayohhvee.eth,1,1 day ago
2115,2116,0x62cb05fc74548,,1,3 months ago
2116,2117,0xe1dfb7c5c9e10,,1,
2117,2118,0x1f49e1fae7b48,,1,2 months ago
2118,2119,0x55cf34223929a,cryptopunk237.e,1,2 months ago
2119,2120,0x10a0b6e6b28e6,,1,
2120,2121,0x47398f188d7d6,,1,
2121,2122,0xbbe846566f217,,1,7 months ago
2122,2123,0x4cf28b4819b9c,,1,1 day ago
2123,2124,0x389747708cfe6,,1,19 days ago
2124,2125,0xdb013c4bef167,thelibrarian.et,1,27 days ago
2125,2126,0x7fadcb59db6d9,,1,2 days ago
2126,2127,0x56244e7320fc9,,1,11 days ago
2127,2128,0x34f26c617aa3e,,1,7 days ago
2128,2129,0x420ba30684b88,,1,
2129,2130,0x004aa3b4c6807,,1,
2130,2131,0x6eb9c83b98af8,,1,
2131,2132,0xd6756d55ee43b,juyan.eth,1,1 month ago
2132,2133,0x03e72dfa79842,,1,6 months ago
2133,2134,0x4d92ad3932218,,1,2 years ago
2134,2135,0xc2297f80b8951,,1,21 days ago
2135,2136,0x7f314be00306b,,1,1 month ago
2136,2137,0xa1f257f534d2e,,1,7 months ago
2137,2138,0x48724944608b7,,1,1 month ago
2138,2139,0x44da33bbe2735,,1,18 days ago
2139,2140,0x169f6e2ffc40b,,1,20 days ago
2140,2141,0x00084121aec43,tchen.eth,1,1 month ago
2141,2142,0x347294f38ef73,,1,
2142,2143,0x8ed4dac730359,,1,6 months ago
2143,2144,0xdd7f515c9b48e,vegvault.eth,1,
2144,2145,0xeab37b9b0b3ff,tazzy.eth,1,
2145,2146,0x3fb3af1cacfe5,,1,
2146,2147,0x3d0ef29f4ef7d,,1,
2147,2148,0x3fc4a7aae868c,,1,
2148,2149,0x6dd7315ad42e8,fugazivault.eth,1,17 days ago
2149,2150,0x0c2e9a64c9382,,1,24 days ago
2150,2151,0xca2aa37436c0c,,1,5 months ago
2151,2152,0x5e438ab731878,,1,
2152,2153,0xf2212df817c93,bdeuce-vault.et,1,
2153,2154,0xc7671428f2e50,,1,1 day ago
2154,2155,0xf3ff88faf8d1d,,1,12 days ago
2155,2156,0x3c41f73374eea,,1,
2156,2157,0x82cefc39c34fb,,1,
2157,2158,0x3819400f51e8f,,1,1 day ago
2158,2159,0xf4f488fe8b8dc,,1,7 months ago
2159,2160,0x2e19050f71ca0,stormz.eth,1,
2160,2161,0xb855567a17c26,,1,
2161,2162,0xbea91e555f85e,blockmerchant.e,1,
2162,2163,0x92cfc1c067ec6,,1,5 months ago
2163,2164,0x1d4b9b250b1bd,,1,12 days ago
2164,2165,0xc2380ded72191,,1,27 days ago
2165,2166,0x1df610099af9e,ab🐺vault.eth,1,3 days ago
2166,2167,0x54be3b98564f0,,1,1 day ago
2167,2168,0xb78f306eaca1a,,1,1 month ago
2168,2169,0xde0580de58e75,,1,29 days ago
2169,2170,0xa3cd1123f4860,,1,4 months ago
2170,2171,0x46ae5b30edfde,himesta.eth,1,1 month ago
2171,2172,0x52bcd7a7720d0,blockblock.eth,1,2 months ago
2172,2173,0x44d93e8ff74d7,,1,1 month ago
2173,2174,0xf476cd75be8fd,4156.eth,1,2 months ago
2174,2175,0x46d9cf4003617,,1,
2175,2176,0xa3a4548b39da9,,1,7 months ago
2176,2177,0x4a298c587b08b,,1,3 months ago
2177,2178,0x664aa3df0d6b9,coreycaplan.eth,1,1 month ago
2178,2179,0xba5df4294a09c,,1,
2179,2180,0x658a29fe953cf,,1,29 days ago
2180,2181,0xa2b0d83821f6e,,1,1 month ago
2181,2182,0xdc8eb8d2d1bab,treasures.eth,1,2 months ago
2182,2183,0xc51447ad3b831,0xchef.eth,1,
2183,2184,0xec8e80f7bfae9,tttaaa,1,1 month ago
2184,2185,0xc22b90da967c7,,1,
2185,2186,0x671f71bb73453,,1,1 month ago
2186,2187,0x2b93c120f5caa,,1,
2187,2188,0x91b2e3b3bb589,,1,
2188,2189,0x1d3db45f912c7,,1,1 month ago
2189,2190,0x1ad100e8be129,daimyo.eth,1,3 days ago
2190,2191,0xb5fb1a63da629,,1,1 month ago
2191,2192,0xbbe96dfafde8e,ankbul.eth,1,1 month ago
2192,2193,0x0eeed2aa0d9e9,,1,1 month ago
2193,2194,0x0b7059d9e71bb,,1,1 month ago
2194,2195,0x72c6c6310535e,davewaslen.eth,1,
2195,2196,0x5cff885b44ef4,,1,7 months ago
2196,2197,0x99fa5ce33ba89,,1,1 month ago
2197,2198,0x68fdcaa73c38e,,1,9 months ago
2198,2199,0x594f515bcab25,,1,3 months ago
2199,2200,0xdb2497a2d3090,,1,1 month ago
2200,2201,0x1645b30527d8b,,1,
2201,2202,0x84044988e0754,,1,29 days ago
2202,2203,0x4dd91f366e1ff,mcwop.eth,1,1 month ago
2203,2204,0x1e5aebcfdc780,,1,21 days ago
2204,2205,0x537bf75de19f3,,1,1 month ago
2205,2206,0x900d3e6830ec6,ButtonNose,1,1 month ago
2206,2207,0xe5859cbc7a5c9,,1,29 days ago
2207,2208,0xdc463f26272d2,laissezbored.et,1,1 month ago
2208,2209,0x53e872600cf73,,1,8 days ago
2209,2210,0x26e3ff0f41688,,1,3 months ago
2210,2211,0xb3d8c3e445039,,1,
2211,2212,0xaa32059aaade3,,1,
2212,2213,0xb3a4d18a160e1,,1,
2213,2214,0x1ac7bb22554e0,,1,7 months ago
2214,2215,0x53a2b203c4159,,1,
2215,2216,0xdb24f4bdf3f17,,1,1 month ago
2216,2217,0x846ed40d870db,,1,2 days ago
2217,2218,0xe54c393e34ab8,,1,
2218,2219,0x752f4ab1cb312,,1,5 days ago
2219,2220,0x3422322c561bf,,1,1 month ago
2220,2221,0x8814c8b4f4f41,,1,6 months ago
2221,2222,0x1e341aa44c293,Blockchainbrett,1,5 months ago
2222,2223,0xb363cf2998ade,,1,7 months ago
2223,2224,0xb0f48f338d3e3,,1,1 month ago
2224,2225,0xf5bb69f6d7c97,,1,
2225,2226,0xbd9e81eb2e9ba,,1,1 month ago
2226,2227,0x668097bc23b4f,,1,
2227,2228,0x728f2548559e2,,1,5 months ago
2228,2229,0x5b54ca8d759f0,,1,29 days ago
2229,2230,0xf0692d3344987,,1,2 days ago
2230,2231,0x3c229864378b3,,1,1 month ago
2231,2232,0x568f5ea8ff84a,,1,
2232,2233,0xd562a0ad4fbee,,1,5 months ago
2233,2234,0xc4824414f2cc9,,1,
2234,2235,0x4059f3c0064cd,oscar.moctezuma,1,
2235,2236,0xb3958c17ddc57,,1,5 months ago
2236,2237,0x8f58b7d6f42e5,,1,
2237,2238,0xf3be106d96aa2,,1,1 month ago
2238,2239,0x387a8eff48093,,1,
2239,2240,0x34489c1017ed7,,1,26 days ago
2240,2241,0xa4b120fdb2fd9,depechenode.eth,1,1 month ago
2241,2242,0x55013e79dc8fb,dolphinwhale.et,1,1 month ago
2242,2243,0x30a35663959ce,,1,1 month ago
2243,2244,0x769eec21a305b,,1,5 months ago
2244,2245,0xead28e25ad83e,,1,6 months ago
2245,2246,0xccf43dcc4e52e,zanzibarz.eth,1,3 days ago
2246,2247,0xdfa9e3c0d705c,,1,1 month ago
2247,2248,0x1cc20398cad9d,,1,
2248,2249,0x7b6107f5df88b,,1,2 months ago
2249,2250,0x0a56b9c9bda7b,,1,
2250,2251,0x19cbb6bd100af,,1,
2251,2252,0xb94f5612b6125,,1,1 year ago
2252,2253,0x5ca12f79e4d33,makesy.eth,1,
2253,2254,0x0529f32a47281,,1,11 days ago
2254,2255,0xc55d765bbd35e,,1,
2255,2256,0x1b2965dc3b169,sumrtime.eth,1,1 month ago
2256,2257,0x67c669ca914ea,,1,20 days ago
2257,2258,0x7c553919d52ff,,1,
2258,2259,0x07dbc9423bc7e,quadrillion.eth,1,2 months ago
2259,2260,0x337121ab97ec5,,1,1 day ago
2260,2261,0x7dbb654b84ab2,,1,
2261,2262,0x7c9b3f8930c83,,1,8 months ago
2262,2263,0xff274170fef74,,1,1 day ago
2263,2264,0xd394cf7e0c9f7,,1,1 month ago
2264,2265,0x33eaaee9d0a61,,1,8 months ago
2265,2266,0x73a6a002b9538,,1,15 days ago
2266,2267,0x24c354b81ea7d,,1,22 hours ago
2267,2268,0x4b20ccfa9416d,,1,
2268,2269,0xec46dd165ee2d,,1,22 days ago
2269,2270,0x3634f315da51a,,1,9 days ago
2270,2271,0x21cf5649ee1a9,iPhone,1,6 days ago
2271,2272,0xace8a51b234e0,,1,29 days ago
2272,2273,0xfded90a3b1348,fvckrender.eth,1,20 days ago
2273,2274,0x1439b4d5a7234,crumble.eth,1,1 month ago
2274,2275,0x251feebd91dd0,,1,1 month ago
2275,2276,0x60d4b10e0a237,,1,1 month ago
2276,2277,0xace6f28261908,,1,6 months ago
2277,2278,0x46b46931423e7,lancecannon.eth,1,1 month ago
2278,2279,0x5a6b8d19c8c78,,1,12 days ago
2279,2280,0x2d019bce8d4ba,,1,
2280,2281,0x371b699d18081,,1,4 months ago
2281,2282,0x7e3c4a6304abc,,1,4 months ago
2282,2283,0x45c7811c459a4,🙅🏻‍♀.eth,1,5 months ago
2283,2284,0xcd262b16421ac,,1,22 days ago
2284,2285,0xf4bb4e19777a9,,1,4 months ago
2285,2286,0xa46f24d23bb97,,1,
2286,2287,0x7d39173b08564,,1,
2287,2288,0x5a99fa495c894,,1,11 months ago
2288,2289,0xc264880fad20d,dancingsirens.e,1,
2289,2290,0xc3bed4188d1bd,,1,24 days ago
2290,2291,0xb4c11a9559796,,1,2 days ago
2291,2292,0x8aafe4af0860a,,1,19 hours ago
2292,2293,0x0087d8098d22b,,1,1 month ago
2293,2294,0xd7715b895765f,,1,1 month ago
2294,2295,0x534feb15eba01,,1,
2295,2296,0xbed872177df6a,,1,1 month ago
2296,2297,0x1dfc617d01e56,,1,
2297,2298,0xe0719af1123a4,,1,1 month ago
2298,2299,0xe57f9044fa7c4,,1,16 hours ago
2299,2300,0x4954b78cda38d,,1,1 year ago
2300,2301,0x5bbb9dc847765,,1,4 months ago
2301,2302,0x81cb2287c60d4,,1,29 days ago
2302,2303,0xcb63de5613de3,,1,1 month ago
2303,2304,0xdf37ac79f8e9b,,1,
2304,2305,0x7c0b1fe2aaea1,,1,1 month ago
2305,2306,0x6242415807f05,,1,1 month ago
2306,2307,0xe8831f591ecfa,,1,13 days ago
2307,2308,0x7971e007a4e4d,dansickles.eth,1,2 months ago
2308,2309,0xb666c5deff9b2,,1,
2309,2310,0xfabae3330992f,,1,1 month ago
2310,2311,0x7c43825db9c66,,1,
2311,2312,0xa1830e8d9f019,🍜🍜🍜🍜🍜.eth,1,1 month ago
2312,2313,0xb91ac9981eb3d,,1,
2313,2314,0x79b5259dc0fcb,3th.eth,1,2 months ago
2314,2315,0x3cda837ec22ce,,1,
2315,2316,0xcbb9ab939e21c,,1,1 month ago
2316,2317,0x6e92e190c2810,,1,11 days ago
2317,2318,0xa47b31690eca4,,1,2 days ago
2318,2319,0x98e9de3364f73,,1,15 days ago
2319,2320,0x773d161310d07,,1,
2320,2321,0xf99cb9a0ee66f,,1,
2321,2322,0xb5f9b21b1dc32,,1,10 months ago
2322,2323,0x953750e591c92,,1,20 days ago
2323,2324,0x074cfe8634ac0,,1,7 months ago
2324,2325,0x6e0d9c6dd8a08,jessepollak.eth,1,
2325,2326,0x1bb77204b2ed6,,1,4 months ago
2326,2327,0xef764bac8a438,0xef764bac8a438,1,1 month ago
2327,2328,0xc30a20b67690f,,1,4 months ago
2328,2329,0x3f072aad66e45,,1,1 month ago
2329,2330,0xb6d94226eab23,,1,
2330,2331,0xa9d5f8eeccdbc,,1,1 year ago
2331,2332,0x9ccd4bf14f8e3,,1,
2332,2333,0x89621b037cdaf,imgnhw.eth,1,
2333,2334,0xc6ef4a74f96fc,,1,1 month ago
2334,2335,0xfc04833ca66b7,,1,
2335,2336,0xe586602f4841e,,1,6 months ago
2336,2337,0xfc2afe8f63fee,,1,
2337,2338,0xf837045a01a02,,1,
2338,2339,0x2e3aefc287fd0,,1,11 days ago
2339,2340,0x3c0969eabb2a9,,1,
2340,2341,0x31176f0aea1a8,,1,11 hours ago
2341,2342,0x405020c797a64,nftsanonymous.e,1,3 months ago
2342,2343,0x8c6e565a72b46,,1,5 months ago
2343,2344,0x2207a70b70e6d,,1,1 month ago
2344,2345,0x4d42307abb9b2,,1,1 month ago
2345,2346,0xa826bd2acba24,,1,1 month ago
2346,2347,0xc8780bf4dc27a,,1,6 days ago
2347,2348,0x862e840c2f7ed,,1,
2348,2349,0xbf59e40112157,,1,3 months ago
2349,2350,0x9624f42eda6bc,bl3ich.eth,1,2 months ago
2350,2351,0x74dacd80d9b67,,1,
2351,2352,0xac707ee01a605,“larvalabs”.eth,1,1 month ago
2352,2353,0x99509e88aeae3,victormosquera.,1,
2353,2354,0x1e20a73d3c5bf,,1,4 months ago
2354,2355,0xf52393e120f91,moderats,1,7 months ago
2355,2356,0x77049c876ec20,,1,
2356,2357,0x3dee682ad8fc1,,1,5 months ago
2357,2358,0xa52763584639f,,1,21 days ago
2358,2359,0x84c63ecd49f41,,1,4 months ago
2359,2360,0x2762c7fe932b8,,1,5 months ago
2360,2361,0x2d8d75d4ba64e,,1,1 month ago
2361,2362,0x5bfbbbca6c9d7,,1,12 days ago
2362,2363,0x7e16a4c29b75e,,1,
2363,2364,0x918a15c6562d6,,1,
2364,2365,0x080c1ee5df627,,1,12 days ago
2365,2366,0xc0d17c6cb78c9,,1,
2366,2367,0x07a75ba044cda,frigo.eth,1,1 month ago
2367,2368,0x405b96e2538ac,,1,
2368,2369,0xd97024166610b,,1,1 month ago
2369,2370,0x69658f46ecc65,,1,4 months ago
2370,2371,0xe5c93a3b1a88f,,1,
2371,2372,0x9f435da21ff15,,1,20 days ago
2372,2373,0x349e011b7ec13,,1,1 month ago
2373,2374,0x3e62ce10233c0,0xmic.eth,1,
2374,2375,0xd75d100ab18d4,,1,1 month ago
2375,2376,0xfad832824c1f2,,1,1 month ago
2376,2377,0xc9b378a35c6c2,,1,2 months ago
2377,2378,0x383a82e5785de,,1,
2378,2379,0x70a78cd1f4c01,madwell.eth,1,6 months ago
2379,2380,0xd9b3e96e9a2fe,,1,17 days ago
2380,2381,0x0d2e911c371dc,bigballspayout.,1,3 days ago
2381,2382,0x2c67137b2006a,,1,27 days ago
2382,2383,0xde2ba4137523c,,1,7 months ago
2383,2384,0x41bf39033c732,thedigitalvee.e,1,1 month ago
2384,2385,0xc8ed6deaffc41,,1,12 days ago
2385,2386,0xb5ddebe5adc68,,1,10 days ago
2386,2387,0x7cd7a5a66d3cd,,1,1 month ago
2387,2388,0x6d96b763131b9,nazzareno.eth,1,
2388,2389,0x01076e09dcb25,,1,6 months ago
2389,2390,0x609630f177090,,1,22 days ago
2390,2391,0xfc80c39b54ad5,,1,4 months ago
2391,2392,0xbd7b4757f9363,,1,1 month ago
2392,2393,0x527b696dffb80,,1,6 months ago
2393,2394,0x1eeb82a8cd3bc,,1,11 days ago
2394,2395,0xacd97c5b040be,,1,
2395,2396,0x37c4e4cdfc374,,1,
2396,2397,0xb63633d726a54,zunk.eth,1,
2397,2398,0x1437d2c5fa039,,1,6 months ago
2398,2399,0x3b3d5008e0945,,1,
2399,2400,0x935fecd566b0b,,1,22 days ago
2400,2401,0x3dd38521ddd6c,0xsoros.eth,1,12 days ago
2401,2402,0x1977c4b06a76c,reydelafuente.e,1,
2402,2403,0x23f67feb67a3a,,1,6 months ago
2403,2404,0xe78de326bf799,,1,6 months ago
2404,2405,0x35aedd3e9ff83,punk2307.eth,1,
2405,2406,0xa135089a26f7b,,1,1 month ago
2406,2407,0x886bdd127a5d9,,1,1 month ago
2407,2408,0xa4ab20624dd41,,1,1 month ago
2408,2409,0x76f1815b6bbfb,btccat.eth,1,1 month ago
2409,2410,0x2de14db256db2,sina.eth,1,1 month ago
2410,2411,0x3f1ac84eccec9,,1,21 days ago
2411,2412,0x4be52934b8464,,1,28 days ago
2412,2413,0xc2a4b640dd4e5,,1,1 month ago
2413,2414,0x6c8ee01f1f8b6,,1,1 month ago
2414,2415,0xfef6793cee400,,1,1 month ago
2415,2416,0x38b6b4387ff27,,1,
2416,2417,0x4147717104cc7,,1,29 days ago
2417,2418,0xcba65e9b39c3a,,1,4 months ago
2418,2419,0x96728ab4c2990,,1,
2419,2420,0x577ff1df8c33f,,1,1 month ago
2420,2421,0x08d816526bdc9,kiwi.eth,1,4 months ago
2421,2422,0x794316614b210,0xgav.eth,1,
2422,2423,0x096abb7c89beb,,1,
2423,2424,0xfa3a54e911ec4,,1,12 days ago
2424,2425,0xdee19f2692a45,breakfree.eth,1,5 days ago
2425,2426,0x73524bd95c988,,1,17 days ago
2426,2427,0xabbc7e8cb731c,,1,1 month ago
2427,2428,0x742b470e13255,,1,1 month ago
2428,2429,0x2fabfc888071c,,1,5 months ago
2429,2430,0x602669ef225f7,levelingup.eth,1,1 month ago
2430,2431,0xc4ee33c00900d,rebol.eth,1,1 year ago
2431,2432,0xfe5573c662733,colethereum.eth,1,1 month ago
2432,2433,0x77f6821146cce,blockyieldcap.e,1,12 days ago
2433,2434,0x3310d7d9c7e75,,1,22 days ago
2434,2435,0x4a39ae58b6051,punk7635.eth,1,
2435,2436,0xfa5050d0d5521,,1,12 days ago
2436,2437,0x66f6d63919934,,1,6 months ago
2437,2438,0x3e3567eb03521,debra.eth,1,1 month ago
2438,2439,0x9dbe56e659611,,1,12 days ago
2439,2440,0xc9a58d42cd64b,,1,4 months ago
2440,2441,0x1ae6a4d3078b9,samuelcardillo.,1,1 month ago
2441,2442,0xd9ff1fbd68e91,museumofcryptoa,1,
2442,2443,0xa289be512b5a3,,1,6 months ago
2443,2444,0x37ffbbee75b44,meb.eth,1,28 days ago
2444,2445,0x3fdbeedcbfd67,,1,1 month ago
2445,2446,0x7db5255041e20,,1,3 months ago
2446,2447,0x2719ae45285b2,,1,11 days ago
2447,2448,0xdd114818ee4a6,,1,1 month ago
2448,2449,0x30a73afacb773,,1,7 months ago
2449,2450,0x7b7736a2c07c4,ogosh.eth,1,3 months ago
2450,2451,0x727fb80e6ab48,,1,12 months ago
2451,2452,0x8e4cdc6044664,,1,5 months ago
2452,2453,0xb989b88c1b41a,,1,
2453,2454,0xee76abfc14778,,1,1 month ago
2454,2455,0xf480935955d38,,1,1 month ago
2455,2456,0xf14ff6c6c3217,nlee.eth,1,10 days ago
2456,2457,0x39ba319c2e57a,nftlogo.eth,1,1 month ago
2457,2458,0xc2d1c329655e7,,1,
2458,2459,0x003f35595dce3,,1,
2459,2460,0xd7e683c992855,,1,
2460,2461,0xa1feee83866d0,,1,1 month ago
2461,2462,0xfd682c4dedac0,,1,
2462,2463,0x9950fe8bb33d7,,1,
2463,2464,0xf3ceddc2181ea,,1,
2464,2465,0xa40c8ac5a6a06,,1,1 month ago
2465,2466,0x9dabb5e4a4936,,1,
2466,2467,0x5ad2d727cfa73,,1,1 month ago
2467,2468,0x23417b5c5fb38,,1,
2468,2469,0x4d0dc3590f4a0,,1,2 months ago
2469,2470,0x334560fcfdec3,punk9972.eth,1,26 days ago
2470,2471,0xd26a3f686d43f,vengist,1,29 days ago
2471,2472,0x066d0ba423756,,1,2 months ago
2472,2473,0x963eb0638a2fe,,1,1 year ago
2473,2474,0xe6d2a9b56701d,bone.eth,1,1 month ago
2474,2475,0x234e486279dc0,,1,5 months ago
2475,2476,0xeb97952c39c36,,1,6 months ago
2476,2477,0x19b5797670f84,,1,1 month ago
2477,2478,0xce8d277c38aad,,1,1 month ago
2478,2479,0x293ed38530005,,1,
2479,2480,0xc4dd8e820ff87,br0se.eth,1,1 month ago
2480,2481,0x36ca4898d224a,,1,6 months ago
2481,2482,0xac977edfa1751,,1,1 month ago
2482,2483,0x7ad349837cc64,,1,1 month ago
2483,2484,0xc542492296d35,punk5974.eth,1,5 months ago
2484,2485,0xce08d66d2824a,,1,
2485,2486,0x0dc1c59c74eae,,1,
2486,2487,0x62e1d5adfb882,,1,1 month ago
2487,2488,0xc1ac1b51c4fdf,,1,
2488,2489,0x8bc3332b8bfd8,,1,
2489,2490,0x284660456037b,,1,
2490,2491,0x4e142fe48c710,nftboi.pxg.eth,1,23 days ago
2491,2492,0x2be830c9c4a3e,punk3690.eth,1,1 month ago
2492,2493,0x2587a57f89c5e,,1,12 days ago
2493,2494,0xd88227fc23717,,1,
2494,2495,0x179456bf16752,obvio.eth,1,27 days ago
2495,2496,0x8eaa0372f03ce,,1,26 days ago
2496,2497,0xe373029afe4f9,,1,1 month ago
2497,2498,0xbfc4fbbec37c2,,1,1 month ago
2498,2499,0xa62d7ad2fddba,,1,12 days ago
2499,2500,0xaa385136024ab,,1,1 month ago
2500,2501,0xc60d5b5fb1389,,1,1 month ago
2501,2502,0x83068ce3210e7,,1,1 month ago
2502,2503,0x321022c75fd37,,1,4 months ago
2503,2504,0x72876c85b32ea,,1,
2504,2505,0x6feeea64029f7,,1,2 months ago
2505,2506,0x7ed716a3c0a63,amun-ra.eth,1,9 days ago
2506,2507,0x2c4090a54bd6e,,1,6 months ago
2507,2508,0x6e998514b41ba,,1,1 month ago
2508,2509,0xdaab06810f942,alcoco.eth,1,
2509,2510,0x477028badabed,,1,1 month ago
2510,2511,0xd4823ebec6d24,,1,28 days ago
2511,2512,0xc6ae2df7818f0,,1,1 month ago
2512,2513,0x60129ecfccf29,jhos.eth,1,1 month ago
2513,2514,0x4600a57f6c9ec,,1,2 months ago
2514,2515,0x0dd71ad6801c2,,1,17 minutes ago
2515,2516,0x707d6ead1e32e,,1,1 month ago
2516,2517,0xa7f3c74f02557,,1,5 months ago
2517,2518,0xd880e1494bfbe,,1,1 month ago
2518,2519,0x954b4ca160c87,,1,5 months ago
2519,2520,0x99b2531b219e7,,1,1 day ago
2520,2521,0x62f9c93dca19e,,1,
2521,2522,0x5101a8ac0766b,,1,1 month ago
2522,2523,0x8ee376de530fb,dapppunk.eth,1,
2523,2524,0xabf7aba9646c5,,1,3 months ago
2524,2525,0x255ab1a43d547,,1,1 day ago
2525,2526,0x04ae2f0bda04f,,1,6 months ago
2526,2527,0xdb1cf642c4299,,1,4 days ago
2527,2528,0x52181215886f6,,1,1 month ago
2528,2529,0x2a8c1d3be5391,,1,
2529,2530,0x9b53af327e397,,1,
2530,2531,0x92e6f7ad96f93,,1,25 days ago
2531,2532,0xa8719a53a9177,,1,1 month ago
2532,2533,0x1b8644d343dc8,,1,28 days ago
2533,2534,0x36864b2234877,chi.eth,1,4 months ago
2534,2535,0xcb76200a08867,,1,20 days ago
2535,2536,0x700e6729c190f,,1,1 month ago
2536,2537,0x355634112df0c,,1,
2537,2538,0xef57162640798,,1,28 days ago
2538,2539,0x050159029e813,,1,6 months ago
2539,2540,0x7af6ecd8c7bfe,,1,1 month ago
2540,2541,0xdbd994526c229,,1,1 month ago
2541,2542,0x88da36152d469,rustybill.eth,1,1 month ago
2542,2543,0x525ba4df7a011,,1,
2543,2544,0xfc840af78a496,jaft.eth,1,2 months ago
2544,2545,0xbc7b2461bfaa2,dailytrivia.eth,1,2 months ago
2545,2546,0x4191aeff0a8f1,,1,
2546,2547,0x59d2bcc276102,,1,4 months ago
2547,2548,0xd2e760420fb99,,1,1 month ago
2548,2549,0x5db8fc15d14dc,,1,1 month ago
2549,2550,0x68a3eddc30063,,1,2 months ago
2550,2551,0xb8c50ae125760,virtualbeings.e,1,5 months ago
2551,2552,0xcedd5bc498183,,1,
2552,2553,0xe2dcf1579804e,fuckajob.eth,1,1 month ago
2553,2554,0x8b79b9bcb5a97,,1,6 months ago
2554,2555,0x44b51387773ce,,1,
2555,2556,0x5d2354461b52c,,1,1 month ago
2556,2557,0x37b468e1d4616,,1,26 days ago
2557,2558,0xfe202370330f1,,1,
2558,2559,0xb5a8ab53782fa,,1,1 month ago
2559,2560,0x865c2f85c9fea,pet3rpan,1,8 months ago
2560,2561,0xc1894e6a52c4c,0xxx.eth,1,1 day ago
2561,2562,0x25006d785c443,,1,1 month ago
2562,2563,0x5b00f3d1644ff,defianceworks.e,1,6 months ago
2563,2564,0xc4b0d0a771790,artpool.eth,1,13 days ago
2564,2565,0x7cd3fc0e4ef95,,1,1 month ago
2565,2566,0x968fa02ec46c8,,1,2 months ago
2566,2567,0x584c7a88179c4,,1,1 month ago
2567,2568,0x86e5ea8f42d72,,1,1 month ago
2568,2569,0x796dff9d9cdb0,,1,21 days ago
2569,2570,0xb85eaf59e6dc6,,1,1 month ago
2570,2571,0x0f4f465ba2536,,1,1 month ago
2571,2572,0x3c2b4bdcd2f74,,1,1 month ago
2572,2573,0x00584363400c0,,1,1 month ago
2573,2574,0x158b0a1231b91,,1,3 days ago
2574,2575,0x15235f0450960,,1,
2575,2576,0x0bb14d47a450e,,1,
2576,2577,0x5398850a9399d,,1,1 month ago
2577,2578,0xa5c3a513645a9,,1,1 month ago
2578,2579,0xd32ac78360f78,yair.eth,1,25 days ago
2579,2580,0x7989e741e0859,potatoesforlife,1,5 months ago
2580,2581,0x42f9134e9d3bf,,1,2 months ago
2581,2582,0x67c7530b9dbfb,,1,1 month ago
2582,2583,0x87d3a7ded5a81,,1,4 months ago
2583,2584,0xefd6c7da67a81,,1,
2584,2585,0x2cb6be40cda9f,,1,3 months ago
2585,2586,0xb78305ee2daf4,dandychiggins.e,1,28 days ago
2586,2587,0xa5e84e96725ee,,1,
2587,2588,0xcacb997125e65,,1,25 days ago
2588,2589,0xa98220f6dc5df,,1,
2589,2590,0xda24f041a3dc3,,1,1 month ago
2590,2591,0x41ebc438c635e,gregariouswolf.,1,1 month ago
2591,2592,0x1359669ddc1b3,,1,1 month ago
2592,2593,0x171193fa2fcdb,,1,
2593,2594,0x167f15a15a798,,1,24 days ago
2594,2595,0x1e9377a12bb98,,1,28 days ago
2595,2596,0x42f3f76ba5202,guyzalaxy.eth,1,26 days ago
2596,2597,0x733428f811d11,,1,29 days ago
2597,2598,0x5375f65a744f5,,1,1 month ago
2598,2599,0x8c794d7345a81,,1,
2599,2600,0x3a172ef0a46c2,,1,1 month ago
2600,2601,0x3ca987e9613f6,,1,1 month ago
2601,2602,0x91364516d3cad,,1,1 month ago
2602,2603,0x4ffef8e8a75c2,,1,1 month ago
2603,2604,0x07379370e6900,,1,11 days ago
2604,2605,0xbaf14b8338cd6,nimaneptune.eth,1,
2605,2606,0xf23a873b5bc29,,1,1 month ago
2606,2607,0x7fd2584729dbe,,1,
2607,2608,0xf1670f281f1d4,,1,
2608,2609,0xf5f26a6041f27,,1,1 year ago
2609,2610,0xdb1a6887e9826,munted.eth,1,12 days ago
2610,2611,0x32b0d0a7ffde7,,1,3 days ago
2611,2612,0xa49f53249e03a,,1,
2612,2613,0xc84a3ea85cf60,,1,1 month ago
2613,2614,0x89d1d8f899db2,,1,1 month ago
2614,2615,0xf55cfe8bf93cb,,1,5 months ago
2615,2616,0xe513094d53f92,,1,11 days ago
2616,2617,0x3993996b09949,,1,5 months ago
2617,2618,0x69ecc396747d2,,1,1 month ago
2618,2619,0x2c123fc5c2788,,1,1 year ago
2619,2620,0x1adc09fa9a173,freezer.eth,1,
2620,2621,0xa86fd35dbb695,,1,7 months ago
2621,2622,0x4df7652d2ceba,kevko.eth,1,4 months ago
2622,2623,0xcedec45e06cbb,,1,1 month ago
2623,2624,0x40ac989f5ddce,voxelmatter.eth,1,1 month ago
2624,2625,0xfa1c022f5aa01,0xfa1c0-two,1,1 year ago
2625,2626,0xc88542913c89c,couchpotato.eth,1,1 month ago
2626,2627,0xa1311fb6cc47a,,1,22 days ago
2627,2628,0xdba893f964316,,1,
2628,2629,0xb089425c9c078,zhaobowen.eth,1,15 days ago
2629,2630,0xa7499aa6464c0,bneiluj.eth,1,4 months ago
2630,2631,0xc30be7a56b45a,,1,3 months ago
2631,2632,0xdf9c93b9b6c23,,1,
2632,2633,0x1b32fc9b7fb1d,,1,6 months ago
2633,2634,0xca105c17941f7,,1,1 year ago
2634,2635,0x4874211da929d,thunderstruck.e,1,1 month ago
2635,2636,0xd96d9dabeff40,,1,2 years ago
2636,2637,0xa876e25a065d8,,1,1 year ago
2637,2638,0x62fe397d401d8,,1,27 days ago
2638,2639,0x55e1490a1878d,,1,11 hours ago
2639,2640,0x95f4b329e61e7,,1,
2640,2641,0x7e9045be45bad,,1,7 months ago
2641,2642,0xe48ab528f2b51,,1,1 month ago
2642,2643,0xf42a339f93c1f,tippy.eth,1,17 days ago
2643,2644,0x997aff12f28b9,m01222,1,4 months ago
2644,2645,0x722645577ee4b,cloudrob.eth,1,1 month ago
2645,2646,0xe5027d611abe3,,1,5 months ago
2646,2647,0xb2dca36456f49,,1,5 months ago
2647,2648,0xaee55fb502f85,,1,
2648,2649,0x655a0301d66b2,,1,
2649,2650,0x789e8dd02ffcc,etekis,1,7 months ago
2650,2651,0x2b18e9c6b073f,,1,1 month ago
2651,2652,0x5fbee92aaf5c6,,1,5 months ago
2652,2653,0x28f4429bb828a,DocMartens,1,
2653,2654,0xa23deaf742997,vault.hype.eth,1,1 month ago
2654,2655,0x582b2164d8c0a,,1,
2655,2656,0x3dae9a20e3943,,1,2 months ago
2656,2657,0x871f66e0c9c77,,1,
2657,2658,0x07e15867d8da2,,1,
2658,2659,0xfb184169f71d6,,1,1 month ago
2659,2660,0xb693ec0622f71,,1,5 months ago
2660,2661,0xd7cc2d0e400f6,,1,
2661,2662,0x065b4b7bc741d,doubleplay.eth,1,
2662,2663,0xf03372d290442,,1,11 days ago
2663,2664,0x25054f27c9972,👨🏼‍✈.eth,1,1 month ago
2664,2665,0xe268cb6fd77c8,,1,11 days ago
2665,2666,0xf50791538e9af,,1,
2666,2667,0x6f3deba69e208,bigpaulthomas,1,1 month ago
2667,2668,0x79a94077ac9ff,,1,1 month ago
2668,2669,0x404a3d8eef9eb,,1,9 days ago
2669,2670,0x3ac2cc26fbb23,,1,1 month ago
2670,2671,0x1bcb5e317671c,,1,11 days ago
2671,2672,0xf288208d88ad8,,1,11 months ago
2672,2673,0x91cda41a25057,,1,1 month ago
2673,2674,0x0dd273b85e557,registerartist.,1,6 months ago
2674,2675,0xb2546aa63d6cb,dukekim.eth,1,
2675,2676,0x266892ed0d40e,,1,
2676,2677,0xa62dca05db659,,1,
2677,2678,0xe5423d0f7a99e,,1,1 month ago
2678,2679,0xce2bec231cb2f,,1,6 months ago
2679,2680,0x64597fd32302d,,1,
2680,2681,0xa59f5ff4e3ddf,gdao🏦.eth,1,
2681,2682,0x4d98f940bba7e,,1,1 month ago
2682,2683,0xbfcfddf74d25c,,1,7 months ago
2683,2684,0x327788f46b5bd,,1,5 days ago
2684,2685,0x2ab3fe13eea37,arturo.sahagun.,1,3 months ago
2685,2686,0xb67d92dc830f1,,1,12 months ago
2686,2687,0xab4cc1cca2724,Collection-Goda,1,25 days ago
2687,2688,0x4f5ecc9c800aa,,1,1 month ago
2688,2689,0x01a23eba50230,,1,2 days ago
2689,2690,0x224f17bb6610c,,1,
2690,2691,0xfd3b9506f9fce,jataro.eth,1,3 months ago
2691,2692,0xa12ac3fbefcb9,,1,1 month ago
2692,2693,0x06550f45f6a0c,evault.eth,1,
2693,2694,0x2ca212af7e656,,1,1 month ago
2694,2695,0xb0fb2ceba0486,thesampo.eth,1,
2695,2696,0x98e9db4feafc7,,1,1 month ago
2696,2697,0x137320997d97d,,1,1 year ago
2697,2698,0xa4c8d9e4ec5f2,,1,11 days ago
2698,2699,0xc71f4f16aee77,,1,7 months ago
2699,2700,0xe03a5189dac81,dandelion.eth,1,1 month ago
2700,2701,0x11e13c8f60292,,1,2 minutes ago
2701,2702,0x228d3c657b8e5,,1,
2702,2703,0xa3b6e1577b003,,1,2 months ago
2703,2704,0xe0666cac0c226,cobbledev.eth,1,1 month ago
2704,2705,0x6d9a2ec158a9b,,1,8 months ago
2705,2706,0x79804382f29aa,,1,1 month ago
2706,2707,0x675ebc88bd623,,1,6 months ago
2707,2708,0xabf0bab9d9a1c,,1,28 days ago
2708,2709,0x14c112cc2e31d,,1,11 days ago
2709,2710,0xdd8afc7436510,,1,1 month ago
2710,2711,0x70f1916f70525,,1,5 months ago
2711,2712,0x351958d9a8985,,1,1 month ago
2712,2713,0xf18fcef2cb0de,,1,1 month ago
2713,2714,0x123be94bca3e5,,1,
2714,2715,0xa30994a58bcb7,,1,
2715,2716,0x695626a661831,,1,1 month ago
2716,2717,0x6ecb6038d9236,,1,2 days ago
2717,2718,0x92ea9efca8251,,1,2 months ago
2718,2719,0xe254b3ea00a92,,1,24 days ago
2719,2720,0x85c0c90946e3e,eivindkleiven,1,5 months ago
2720,2721,0x2584fcefec2fe,,1,1 month ago
2721,2722,0xffe57fd95451b,,1,12 days ago
2722,2723,0x14d7ab124eef0,,1,4 months ago
2723,2724,0x04df8d02f912d,,1,1 month ago
2724,2725,0xec20daf80b66e,,1,6 months ago
2725,2726,0xbf9f9073ffe94,,1,2 months ago
2726,2727,0x7d65bba2e829f,,1,6 days ago
2727,2728,0x7c04786f04c52,1890.eth,1,2 months ago
2728,2729,0x16a7cf1b739fc,,1,2 months ago
2729,2730,0xce41429cc8d2e,,1,
2730,2731,0x382681f262e3a,,1,4 months ago
2731,2732,0x507bd0790febc,,1,28 days ago
2732,2733,0xab9a363e67f8a,,1,
2733,2734,0x48af2bd40905f,petitcaillou.et,1,1 month ago
2734,2735,0xc7eb1916a4d9c,,1,
2735,2736,0x8a5a244b08678,mnemonic.eth,1,3 months ago
2736,2737,0x9fe13c659d7a3,,1,
2737,2738,0xf4f1dccc5f122,,1,1 month ago
2738,2739,0x9de193e246f9a,,1,
2739,2740,0x8980da95595a1,,1,
2740,2741,0x9179de43eafb0,,1,4 months ago
2741,2742,0x0b9248deee2f5,,1,
2742,2743,0xbc2055a861738,,1,28 days ago
2743,2744,0x484a12a27e8c9,freezedrychief.,1,1 month ago
2744,2745,0x19dbeb26e9e08,,1,
2745,2746,0x2a48216fa6f5c,,1,13 days ago
2746,2747,0x39edb9b67ced3,,1,
2747,2748,0x00014f7b47769,,1,
2748,2749,0x70fcbdb357a43,,1,
2749,2750,0x2a0b4bdb2492e,,1,5 months ago
2750,2751,0x86f5892f243d0,,1,
2751,2752,0xea8bf9cfcde59,,1,12 days ago
2752,2753,0x598b014cbd88f,,1,27 days ago
2753,2754,0x62cf5116b279a,Homunkulus,1,1 month ago
2754,2755,0x0ae8a421e5cf4,curate.eth,1,1 month ago
2755,2756,0xb260eef285a44,,1,
2756,2757,0x80e2df6a4a90a,,1,5 months ago
2757,2758,0x66058cd905a2d,,1,
2758,2759,0xb6cf25f5cf8a1,kjames.eth,1,2 months ago
2759,2760,0x2146a3d229d08,,1,
2760,2761,0x6793f8cb15b84,,1,2 months ago
2761,2762,0x785bc2484a15d,,1,1 month ago
2762,2763,0xa6d449a30ba61,,1,1 month ago
2763,2764,0x25cb962a60bba,,1,
2764,2765,0xf5c5546040bc3,,1,9 days ago
2765,2766,0x7f00f2cd5b1ec,,1,1 month ago
2766,2767,0x0e06d6e9ed71c,,1,21 hours ago
2767,2768,0xfed05b6bacc40,,1,1 month ago
2768,2769,0x2d45db9d296db,,1,5 months ago
2769,2770,0x5e7ab98d1d519,,1,4 months ago
2770,2771,0x7d199ebce755a,,1,
2771,2772,0x0f045a0d77d24,,1,29 days ago
2772,2773,0xa0efdc04e7186,,1,3 months ago
2773,2774,0x7fb48df40bf81,,1,4 days ago
2774,2775,0x59d4fd60a2505,,1,2 months ago
2775,2776,0x5d4fd985ee4d1,,1,6 months ago
2776,2777,0x314e07de34103,abc88.eth,1,2 days ago
2777,2778,0xcb8172da4bf02,,1,24 days ago
2778,2779,0xd2d70bda86d2c,,1,8 months ago
2779,2780,0x59d20c3d2e5d2,,1,1 month ago
2780,2781,0xc5417a0fe9a7f,,1,6 months ago
2781,2782,0x0c35506a1710f,,1,1 month ago
2782,2783,0x188408ef0c262,,1,4 months ago
2783,2784,0xa081ae42802e0,,1,29 days ago
2784,2785,0xad0460d0c672e,,1,1 month ago
2785,2786,0xbb634e147b273,,1,3 months ago
2786,2787,0x9320ad044d48e,,1,13 days ago
2787,2788,0x2560b0fc3c7cc,,1,2 days ago
2788,2789,0xcc4268032ad56,apeape.eth,1,
2789,2790,0x52768f4691507,,1,4 months ago
2790,2791,0xf8cc874fe4696,cryptopunkscn.e,1,3 days ago
2791,2792,0x565cad69921b0,,1,
2792,2793,0x67d21ebd269d6,hahah.eth,1,1 month ago
2793,2794,0x8e3fabf5a1e4b,,1,1 month ago
2794,2795,0x1d1c9dad9a24b,kittybank.eth,1,1 month ago
2795,2796,0xd478df699a99e,,1,
2796,2797,0xe8075d7b965e8,,1,10 days ago
2797,2798,0x00d29fbc981d0,bn89.eth,1,1 month ago
2798,2799,0xedb309676adf6,,1,
2799,2800,0x6f7c4148ab6e8,,1,1 month ago
2800,2801,0xba45f804934ca,,1,
2801,2802,0x28d804bf2212e,geo.eth,1,1 month ago
2802,2803,0xe2b1081dc2770,roosh.eth,1,
2803,2804,0x2a7bf5c1620a7,,1,
2804,2805,0xdb81a847b3711,,1,1 month ago
2805,2806,0xb718727e7c8a4,3155.eth,1,1 month ago
2806,2807,0x8e726c319e9f6,decideus.eth,1,26 days ago
2807,2808,0x6d790d9e11e8b,,1,4 days ago
2808,2809,0x6c9726afbf60b,,1,
2809,2810,0xa7d4e98fddef3,,1,1 month ago
2810,2811,0xf271fa205a088,,1,1 month ago
2811,2812,0xf569698fedadc,,1,1 month ago
2812,2813,0xcbdcc4cc31a41,,1,27 days ago
2813,2814,0xf566b86cba123,,1,1 month ago
2814,2815,0x30040b5455492,,1,1 month ago
2815,2816,0xfd141444dfa23,,1,29 days ago
2816,2817,0x42bac6b0539dc,,1,
2817,2818,0x486d582eed105,,1,5 months ago
2818,2819,0xefb57af90b132,,1,2 months ago
2819,2820,0x71f06f6bd462a,Japone424,1,4 months ago
2820,2821,0xe6683e6aae795,harperrules.eth,1,
2821,2822,0x18f2368ab4816,looklabs.eth,1,1 month ago
2822,2823,0x0b8f4c4e7626a,artchick.eth,1,3 months ago
2823,2824,0x4bbabd5870e2f,,1,
2824,2825,0xc01c78fd32403,,1,1 month ago
2825,2826,0x4e3eb75448335,,1,1 month ago
2826,2827,0x903f5991587e5,wiseowl.eth,1,4 months ago
2827,2828,0x71750edc31970,,1,1 day ago
2828,2829,0x80dedf740fcc2,,1,1 month ago
2829,2830,0x9963beafebd49,,1,
2830,2831,0x4897d38b09740,h4x.eth,1,26 days ago
2831,2832,0xee08a6247d8ef,,1,1 month ago
2832,2833,0xa1ed22466308b,alex666.eth,1,3 months ago
2833,2834,0x7b012ea364b78,,1,1 month ago
2834,2835,0xcb4de7db08b4d,,1,4 months ago
2835,2836,0xa52d736af59a7,,1,1 month ago
2836,2837,0x69bb864c0ab40,gab.eth,1,1 month ago
2837,2838,0x38c6cedbfb240,,1,1 month ago
2838,2839,0xb622ea682c54b,kingethan.eth,1,1 month ago
2839,2840,0x72fad4173180f,,1,7 months ago
2840,2841,0x3bcc6838418d3,,1,1 month ago
2841,2842,0xd80f31afcadd8,ppp_ppp,1,28 days ago
2842,2843,0xb78e3e8bd36b3,cpu1,1,1 month ago
2843,2844,0x138f2bfa3856d,,1,4 days ago
2844,2845,0x49705967e4a9e,grunar.eth,1,18 days ago
2845,2846,0xda022d23ca13b,,1,
2846,2847,0x031f4ddae8a56,mistashilla.eth,1,1 month ago
2847,2848,0x28996b74bea1c,asgrow13.eth,1,
2848,2849,0x4aadee07458a5,peterh.eth,1,1 month ago
2849,2850,0x87b671168a444,,1,2 months ago
2850,2851,0xf7b3226e803b2,twinrafters.eth,1,
2851,2852,0x463ff9b3abf57,,1,
2852,2853,0x254c35d7c1ad2,,1,
2853,2854,0xecba5f51925e6,,1,5 months ago
2854,2855,0x0000000000000,,1,
2855,2856,0xbfe6ab7795175,,1,
2856,2857,0x78ad96105bee6,jans.eth,1,
2857,2858,0x8f2a8b4e36f2a,,1,7 months ago
2858,2859,0xcc7357203c0d1,,1,1 month ago
2859,2860,0xf892d9fa129bd,,1,
2860,2861,0x7afc3d65e4e3b,bwvault.eth,1,29 days ago
2861,2862,0x058adc6b6c242,,1,
2862,2863,0xbe88a02e13998,,1,
2863,2864,0xcc33b8f0445ff,,1,
2864,2865,0x01c59869b44f3,,1,
2865,2866,0xfbb0658c4796f,,1,
2866,2867,0x1629780296ce7,,1,25 days ago
2867,2868,0xc4bafdc0a6b7c,,1,13 days ago
2868,2869,0x4b674e70f6b36,,1,
2869,2870,0x7c892fe9cd354,,1,
2870,2871,0x729fbdd2c5662,,1,
2871,2872,0xf75fcd9849d33,,1,29 days ago
2872,2873,0xd5730830cffd0,anonfarmer.eth,1,1 month ago
2873,2874,0xd9e912afcea49,,1,2 days ago
2874,2875,0x6924686b3dcd0,itzler.eth,1,
2875,2876,0xc61167631f69f,so_long_and_tha,1,11 months ago
2876,2877,0x5f0bd06a71e03,,1,1 month ago
2877,2878,0x0000000000000,NullAddress,1,
2878,2879,0xfa71befa45ffd,,1,1 month ago
2879,2880,0x67edd0b8f66ce,,1,1 month ago
2880,2881,0x3def562823106,defispartan.eth,1,
2881,2882,0x1ff2875cd548e,,1,
2882,2883,0xb954f89691dbb,countryroads.et,1,
2883,2884,0xc5c10b235c10d,,1,4 days ago
2884,2885,0x6c22a9e37f4b5,faxme.eth,1,1 month ago
2885,2886,0xa3937174067dd,,1,1 month ago
2886,2887,0xf115381ed1042,1350walton,1,1 month ago
2887,2888,0xa0d72886894ca,,1,
2888,2889,0xc991fd20ffd2e,,1,6 months ago
2889,2890,0xfe8d12bb904e6,,1,
2890,2891,0x295ce385a1625,,1,6 months ago
2891,2892,0x667f565a40b75,,1,
2892,2893,0x87f669c0ee22c,,1,
2893,2894,0x5f64884dfdf84,avengedsevenhod,1,
2894,2895,0x8a0a569b2937e,bitfuturez.eth,1,1 month ago
2895,2896,0x84e47bd345d04,bianchivault.et,1,11 days ago
2896,2897,0x6ba4920879402,,1,
2897,2898,0xaee4bdcf9d164,,1,
2898,2899,0xb4b37ecc6d8fd,,1,
2899,2900,0x35ffc49e7fefc,droscott.eth,1,1 month ago
2900,2901,0xdafd095db8ec8,,1,8 days ago
2901,2902,0x8fc011ad86cc2,,1,7 months ago
2902,2903,0xc04f55c388f4a,,1,1 month ago
2903,2904,0x81e46659783cb,,1,
2904,2905,0xf2b09726761a3,,1,
2905,2906,0xe9aa4441bab65,,1,12 days ago
2906,2907,0x8a10c61319517,,1,1 month ago
2907,2908,0x869ce6fb96b6e,ethereumjesus.e,1,
2908,2909,0x5ed0f666e6c20,ysiu.eth,1,
2909,2910,0x17e31bf839acb,0x17e31bf839acb,1,2 years ago
2910,2911,0x6f380a6c59771,,1,1 month ago
2911,2912,0xeee6e053a6ea2,,1,
2912,2913,0xd4fe2012b16b7,,1,
2913,2914,0x30602250c5f1f,Alegria,1,2 years ago
2914,2915,0xa9c09f45b2bd1,,1,2 years ago
2915,2916,0xf26f2f6f86cf3,,1,
2916,2917,0x0006e4548aed4,,1,20 days ago
2917,2918,0x1e9babdb4743d,GtC,1,7 days ago
2918,2919,0x34394eff1ef9c,,1,1 month ago
2919,2920,0xcc1a2bd1a459b,punk3794.eth,1,1 month ago
2920,2921,0xd461c0e84c986,,1,1 month ago
2921,2922,0xfb5251bf63e23,,1,6 months ago
2922,2923,0xace34f3fbceef,,1,1 month ago
2923,2924,0x8c0ff426dfa77,boneheads.eth,1,2 days ago
2924,2925,0xbddac3e91fb04,,1,1 month ago
2925,2926,0x3efe8bfb96a10,,1,1 month ago
2926,2927,0xbd066b920a545,,1,2 years ago
2927,2928,0x44f4fd91dbaad,,1,
2928,2929,0x0dee5be7d5132,,1,7 days ago
2929,2930,0xabf107de3e01c,sunfire.eth,1,26 days ago
2930,2931,0xdf1fbe2d72299,,1,1 month ago
2931,2932,0x2e10fd3884dce,buonarroti.eth,1,2 months ago
2932,2933,0x32797155ae534,dennyvault.eth,1,
2933,2934,0x6176d1ca33c08,,1,
2934,2935,0x48d0f04cead85,coys.eth,1,1 month ago
2935,2936,0x30a957c539d04,,1,2 months ago
2936,2937,0xcb5fba4419abc,jlwaugh.eth,1,2 years ago
2937,2938,0x63748140c409b,,1,1 month ago
2938,2939,0x80dc4bc679be9,,1,1 month ago
2939,2940,0xc7130002c8472,,1,12 days ago
2940,2941,0x08942872046fa,,1,
2941,2942,0xf0c2ec9f413bd,,1,1 month ago
2942,2943,0xefcc4c68e1ddf,,1,1 month ago
2943,2944,0xaf2b3a554b5a9,,1,1 month ago
2944,2945,0xbfc2117819e58,,1,
2945,2946,0x1cc1983396e55,,1,
2946,2947,0xd271dba437a36,,1,7 months ago
2947,2948,0xf29155745c8ee,,1,15 hours ago
2948,2949,0xd81cd9615e0a2,,1,24 days ago
2949,2950,0xaafcc8f4ac3d8,,1,1 month ago
2950,2951,0xf4e115673718b,gigimauri.eth,1,2 years ago
2951,2952,0x6fe97dbf9888d,,1,1 month ago
2952,2953,0x728b0fd705191,,1,4 months ago
2953,2954,0xdbc4846b41c15,,1,
2954,2955,0x22eab1c785215,,1,1 month ago
2955,2956,0x2363b1f0e89d7,,1,2 years ago
2956,2957,0x5ab5844dd55ab,uxt,1,24 days ago
2957,2958,0x661c1239aa039,,1,4 months ago
2958,2959,0x21a4c28cda2e0,,1,
2959,2960,0xc8a7dd90d2fb8,,1,1 month ago
2960,2961,0x038666d86f8c7,,1,5 months ago
2961,2962,0xf4d86e1c3cf57,Raichidean,1,2 years ago
2962,2963,0x72ba1965320ab,nanexcool.eth,1,7 months ago
2963,2964,0xc4145c63fd531,,1,24 days ago
2964,2965,0x59cdf8f029821,,1,1 month ago
2965,2966,0x367fd61a7af88,,1,1 month ago
2966,2967,0x2a15cafb85096,,1,2 years ago
2967,2968,0xec6fa687ebc10,,1,
2968,2969,0x4c85ece5bbf19,thepunk.eth,1,2 months ago
2969,2970,0xf3551f4c9171f,,1,1 month ago
2970,2971,0x97c0dbcb62f05,,1,5 months ago
2971,2972,0x7c1958ba95ab3,,1,1 month ago
2972,2973,0x510bd1a857df8,,1,4 months ago
2973,2974,0xfa898efdb91e3,,1,
2974,2975,0x840724f70d2dc,diamondballz.et,1,19 days ago
2975,2976,0xe5546f0f94b28,,1,1 month ago
2976,2977,0x91b7f6b94554c,,1,1 day ago
2977,2978,0x18e278e935f95,,1,
2978,2979,0x984d3e6f83d2e,,1,
2979,2980,0xaa83ea638ff2a,,1,2 years ago
2980,2981,0xbc20897cae77e,,1,6 months ago
2981,2982,0xf00f544c550c0,,1,1 month ago
2982,2983,0x1b0e8be300eeb,,1,12 days ago
2983,2984,0xad4d70479cf92,,1,8 days ago
2984,2985,0xe08c32737c021,,1,2 years ago
2985,2986,0x3e17fac953de2,,1,1 month ago
2986,2987,0xa5331e8929b83,metajake.eth,1,1 month ago
2987,2988,0xb1879d599b990,,1,7 days ago
2988,2989,0x0e2f4786ad2cb,apo11o.eth,1,1 month ago
2989,2990,0x85ab42b79b244,,1,2 months ago
2990,2991,0xcc72f778eedd8,,1,1 month ago
2991,2992,0xd373b2d5d61b9,allforresearch.,1,1 month ago
2992,2993,0x6e30a40a23509,leth1250.eth,1,3 months ago
2993,2994,0xbd12b97baffa8,,1,
2994,2995,0xd74f186194ab9,,1,
2995,2996,0x00a2ee17a50b8,mariovault.eth,1,2 days ago
2996,2997,0xa4709378e1468,,1,1 month ago
2997,2998,0x5cf9628babc94,,1,6 months ago
2998,2999,0x962bd5b036e32,,1,5 months ago
2999,3000,0x4136e3aa19aad,,1,16 days ago
3000,3001,0xe50a2256b8442,cryptopapa.eth,1,1 month ago
3001,3002,0x78e6fe8e1d14a,,1,2 months ago
3002,3003,0x14ae8100ea85a,,1,1 month ago
3003,3004,0x82b15b78ba919,,1,
3004,3005,0x98dda2ad2dc77,,1,1 month ago
3005,3006,0xc442b7f7d0f81,,1,
3006,3007,0x7d422cf705af9,,1,9 hours ago
3007,3008,0x99c63b3f73d8c,vault.dandelion,1,
3008,3009,0xd41d359c4ee03,,1,1 month ago
3009,3010,0xe0297e84e4920,,1,1 month ago
3010,3011,0xca86532c9814e,,1,
3011,3012,0xe4709a6bc622d,arigato.eth,1,2 months ago
3012,3013,0xdde542d11949f,,1,
3013,3014,0xee113b5073b08,CryptoPunkQueen,1,10 days ago
3014,3015,0xba8dd3152d7c1,,1,21 days ago
3015,3016,0x020cf21cb5894,,1,1 month ago
3016,3017,0x1fdf89dd0eba8,,1,19 days ago
3017,3018,0x33fa7aea9e9fd,,1,2 months ago
3018,3019,0xde3df72601b79,,1,22 days ago
3019,3020,0x343ad7cf0b4ee,,1,1 month ago
3020,3021,0xf143e0ad14a02,rivatez.eth,1,19 days ago
3021,3022,0x117c6e09cc85d,,1,1 month ago
3022,3023,0x88b79cf86f794,,1,
3023,3024,0xb9bad1865bfb1,,1,
3024,3025,0xf9963dbe9438a,billξ.eth,1,1 month ago
3025,3026,0x5b21dab3f002a,voxies.eth,1,1 month ago
3026,3027,0x9af97943a81b5,,1,
3027,3028,0xf82502938b8b0,,1,5 months ago
3028,3029,0xae3fc7962c874,,1,
3029,3030,0x833d9fa23e20a,mindfoolvault.e,1,9 days ago
3030,3031,0xaa47a4ffc9793,,1,19 days ago
3031,3032,0x2afa2dae85a77,Tschuuulys,1,1 year ago
3032,3033,0x7b865d0b7bf3c,,1,3 days ago
3033,3034,0x2326d4fb27376,,1,1 month ago
3034,3035,0x63c0ec11c575a,,1,1 month ago
3035,3036,0x60251579f5d1b,,1,
3036,3037,0x9bb3e06a6667e,,1,
3037,3038,0xf450a188a00a8,,1,
3038,3039,0x6dea2b37104cb,illus.eth,1,3 days ago
3039,3040,0x812b4e6e9f289,,1,
3040,3041,0xfa948c9265516,,1,
3041,3042,0x043f4290fb39d,oxsome.eth,1,1 month ago
3042,3043,0xe29e61ca041b3,,1,7 months ago
3043,3044,0x0c54a765c77a8,odiousvault.eth,1,2 months ago
3044,3045,0x6f3c65efd2160,,1,27 days ago
3045,3046,0xb47c728345b07,,1,7 days ago
3046,3047,0x12c9c42d8fb9b,,1,1 month ago
3047,3048,0xf3b6740fb1c6b,,1,1 month ago
3048,3049,0xd9046ee6ed17a,,1,4 months ago
3049,3050,0x5e4bfb9b30481,,1,1 month ago
3050,3051,0x074e3df462536,,1,10 months ago
3051,3052,0xe937e88591f64,punk7917.eth,1,3 months ago
3052,3053,0xaba29c439aa74,,1,
3053,3054,0x41fcf474a454f,,1,
3054,3055,0xad7a0063dd998,,1,
3055,3056,0xc69f5d1eb768e,,1,
3056,3057,0x1e4e1f77c4c9d,,1,
3057,3058,0xf4f8fbfaa52e6,,1,
3058,3059,0x4e2a1b9c34671,,1,13 hours ago
3059,3060,0xae43b2e277401,,1,1 month ago
3060,3061,0x59dbce846aa40,,1,25 days ago
3061,3062,0x768033091cc8d,,1,
3062,3063,0x0aa6489745c55,,1,
3063,3064,0x9f786933b9090,,1,
3064,3065,0x6240f68553a39,,1,
3065,3066,0x8d23bef354f24,,1,
3066,3067,0x7f208e6b4f99b,grandenchilada.,1,
3067,3068,0x57ff0dc4695e7,,1,
3068,3069,0x87b740014b4e9,,1,7 months ago
3069,3070,0x22834271ba74c,,1,
3070,3071,0x89d5387bd2bfe,,1,
3071,3072,0x9f2942ff27e40,,1,2 years ago
3072,3073,0x4a657d5361471,,1,9 days ago
3073,3074,0x9cf33c6ed6182,,1,
3074,3075,0x693bccd6116da,,1,
3075,3076,0x538faf7f2e3f9,,1,25 days ago
3076,3077,0xd85659becc8d8,,1,
3077,3078,0x4ddcf85d88d01,,1,8 days ago
3078,3079,0x22ffffe3b1f71,,1,
3079,3080,0x2d3e745c59d08,,1,
3080,3081,0xc17e120d46f6e,,1,
3081,3082,0xd1e190457e88c,,1,
3082,3083,0x25aa9d898d055,,1,
3083,3084,0x290fbe4d4745f,21x.eth,1,1 month ago
3084,3085,0x2e73aa4cba66c,,1,28 days ago
3085,3086,0xa387c87102fc0,snape0x.eth,1,1 month ago
3086,3087,0xd3b52a5cf3643,kevinren.eth,1,22 days ago
3087,3088,0x0eee196aee052,,1,18 days ago
3088,3089,0xa2272469c824d,,1,1 month ago
3089,3090,0x15508eb216ba5,,1,1 month ago
3090,3091,0x0aa78b747dfc1,,1,
3091,3092,0x283e16cc6de9d,punk6845.eth,1,2 months ago
3092,3093,0x2c35416dc20a1,Sixty,1,1 year ago
3093,3094,0x0722692deb9c7,edenau.eth,1,8 months ago
3094,3095,0x2dcd41079b859,,1,2 years ago
3095,3096,0xbb3bc7177f52d,,1,1 month ago
3096,3097,0xbca37906013aa,jtnft.eth,1,
3097,3098,0x74857f68e61fe,,1,13 days ago
3098,3099,0x74ec638d8e82a,Digital,1,1 year ago
3099,3100,0xf7bc410301515,,1,
3100,3101,0x6a46f13a1519c,,1,
3101,3102,0xed5960a454782,,1,11 days ago
3102,3103,0x8a431a7312651,,1,4 months ago
3103,3104,0xd79a09bbf0ead,,1,2 years ago
3104,3105,0x463493cb9d624,,1,2 years ago
3105,3106,0x1d62204746a1b,,1,2 years ago
3106,3107,0x1b21a4287cbfa,,1,12 days ago
3107,3108,0x9fdf724bcdf93,cuy.eth,1,8 months ago
3108,3109,0x4dc8a4facf0cb,ilovemattyice.e,1,1 month ago
3109,3110,0x52782c2ab1741,,1,25 days ago
3110,3111,0xb76e77568756e,,1,21 days ago
3111,3112,0x520297dab0761,,1,
